p cnf 2320 8620
1 30 47 69 154 166 0
2 3 4 5 8 19 20 21 22 23 32 33 35 36 68 76 77 78 82 83 84 85 86 87 88 89 90 91 95 96 97 109 110 111 112 113 114 115 116 117 118 119 120 121 122 123 124 125 126 127 128 129 130 131 132 133 134 135 136 137 138 139 141 153 181 182 183 188 189 190 198 199 200 202 203 208 213 214 0
2 3 4 5 8 19 20 21 22 23 32 33 35 36 68 76 77 78 82 83 84 85 86 87 88 89 90 91 95 96 97 109 110 111 112 113 114 115 116 117 118 119 120 121 122 123 124 125 126 127 128 129 130 131 132 133 134 135 136 137 138 139 141 153 181 182 183 188 189 190 198 199 200 202 203 208 213 214 0
2 3 4 5 8 19 20 21 22 23 32 33 35 36 68 76 77 78 82 83 84 85 86 87 88 89 90 91 95 96 97 109 110 111 112 113 114 115 116 117 118 119 120 121 122 123 124 125 126 127 128 129 130 131 132 133 134 135 136 137 138 139 141 153 181 182 183 188 189 190 198 199 200 202 203 208 213 214 0
2 3 4 5 8 19 20 21 22 23 32 33 35 36 68 76 77 78 82 83 84 85 86 87 88 89 90 91 95 96 97 109 110 111 112 113 114 115 116 117 118 119 120 121 122 123 124 125 126 127 128 129 130 131 132 133 134 135 136 137 138 139 141 153 181 182 183 188 189 190 198 199 200 202 203 208 213 214 0
6 7 9 39 40 41 42 43 44 61 80 98 99 100 155 163 164 184 185 187 204 211 0
6 7 9 39 40 41 42 43 44 61 80 98 99 100 155 163 164 184 185 187 204 211 0
2 3 4 5 8 19 20 21 22 23 32 33 35 36 68 76 77 78 82 83 84 85 86 87 88 89 90 91 95 96 97 109 110 111 112 113 114 115 116 117 118 119 120 121 122 123 124 125 126 127 128 129 130 131 132 133 134 135 136 137 138 139 141 153 181 182 183 188 189 190 198 199 200 202 203 208 213 214 0
6 7 9 39 40 41 42 43 44 61 80 98 99 100 155 163 164 184 185 187 204 211 0
10 11 12 25 29 31 34 37 38 48 49 50 51 52 53 54 55 56 57 58 59 62 63 67 73 74 75 102 103 104 152 168 169 170 176 192 197 209 210 212 215 220 0
10 11 12 25 29 31 34 37 38 45 48 49 50 51 52 53 54 55 56 57 58 59 62 63 67 73 74 75 102 103 104 168 169 170 176 192 197 209 210 215 220 0
10 11 12 25 29 31 34 37 38 45 48 49 50 51 52 53 54 55 56 57 58 59 62 63 67 73 74 75 102 103 104 168 169 170 176 192 197 209 210 215 220 0
13 94 140 156 159 0
14 15 16 17 18 34 46 64 65 66 67 71 81 142 144 145 146 147 148 149 150 151 160 167 168 169 170 171 172 173 174 175 176 178 180 193 195 196 197 201 206 207 215 216 217 218 219 0
14 15 17 18 28 34 46 47 64 65 66 67 71 92 93 144 145 146 147 148 149 150 151 154 160 166 170 171 172 173 174 175 176 178 180 193 195 196 197 201 205 206 207 215 216 217 218 219 0
14 16 17 18 46 64 65 66 71 81 142 144 145 146 147 148 149 150 151 152 160 162 167 171 172 173 174 175 178 180 193 194 195 196 201 206 207 212 216 217 218 219 0
14 15 16 17 18 34 46 64 65 66 67 71 81 142 144 145 146 147 148 149 150 151 160 167 168 170 171 172 173 174 175 176 178 180 193 194 195 196 197 201 206 207 215 216 217 218 219 0
14 15 16 17 18 34 46 64 65 66 67 71 81 142 144 145 146 147 148 149 150 151 160 162 167 170 171 172 173 174 175 176 178 180 193 194 195 196 197 201 206 207 215 216 217 218 219 0
2 3 4 5 8 19 20 21 22 23 32 33 35 36 68 76 77 78 82 83 84 85 86 87 88 89 90 91 95 96 97 109 110 111 112 113 114 115 116 117 118 119 120 121 122 123 124 125 126 127 128 129 130 131 132 133 134 135 136 137 138 139 141 153 181 182 183 188 189 190 198 199 200 202 203 208 213 214 0
2 3 4 5 8 19 20 21 22 23 32 33 35 36 76 77 78 82 83 84 85 86 87 88 89 90 91 95 96 97 109 110 111 112 113 114 115 116 117 118 119 120 121 122 123 124 125 126 127 128 129 130 131 132 133 134 135 136 137 138 139 141 153 181 182 183 188 189 190 198 199 200 202 203 208 213 214 0
2 3 4 5 8 19 20 21 22 23 32 33 35 36 68 76 77 78 82 83 84 85 86 87 88 89 90 91 95 96 97 109 110 111 112 113 114 115 116 117 118 119 120 121 122 123 124 125 126 127 128 129 130 131 132 133 134 135 136 137 138 139 141 153 181 182 183 188 189 190 198 199 200 202 203 208 213 214 0
2 3 4 5 8 19 20 21 22 23 32 33 35 36 76 77 78 82 83 84 85 86 87 88 89 90 91 95 96 97 109 110 111 112 113 114 115 116 117 118 119 120 121 122 123 124 125 126 127 128 129 130 131 132 133 134 135 136 137 138 139 141 153 181 182 183 188 189 190 198 199 200 202 203 208 213 214 0
2 3 4 5 8 19 20 21 22 23 32 33 35 36 68 76 77 78 82 83 84 85 86 87 88 89 90 91 95 96 97 109 110 111 112 113 114 115 116 117 118 119 120 121 122 123 124 125 126 127 128 129 130 131 132 133 134 135 136 137 138 139 141 153 181 182 183 188 189 190 198 199 200 202 203 208 213 214 0
24 157 158 0
10 11 12 25 29 31 34 37 38 45 48 49 50 51 52 53 54 55 56 57 58 59 62 63 67 73 74 75 102 103 104 168 169 170 176 192 197 209 210 215 220 0
26 27 72 101 105 106 107 108 161 179 191 0
26 27 72 101 105 106 107 108 161 179 191 0
15 28 30 47 92 93 154 166 176 205 0
10 11 12 25 29 31 34 37 38 45 48 49 50 51 52 53 54 55 56 57 58 59 62 63 73 74 75 102 103 104 168 169 170 192 209 210 220 0
1 28 30 45 69 166 0
10 11 12 25 29 31 34 37 38 45 48 49 50 51 52 53 54 55 56 57 58 59 62 63 67 73 74 75 102 103 104 168 169 170 176 192 197 209 210 215 220 0
2 3 4 5 8 19 20 21 22 23 32 33 35 36 68 76 77 78 82 83 84 85 86 87 88 89 90 91 95 96 97 109 110 111 112 113 114 115 116 117 118 119 120 121 122 123 124 125 126 127 128 129 130 131 132 133 134 135 136 137 138 139 141 153 181 182 183 188 189 190 198 199 200 202 203 208 213 214 0
2 3 4 5 8 19 20 21 22 23 32 33 35 36 68 76 77 78 82 83 84 85 86 87 88 89 90 91 95 96 97 109 110 111 112 113 114 115 116 117 118 119 120 121 122 123 124 125 126 127 128 129 130 131 132 133 134 135 136 137 138 139 141 153 181 182 183 188 189 190 198 199 200 202 203 208 213 214 0
10 11 12 14 15 17 18 25 29 31 34 38 46 48 49 50 51 55 56 57 58 59 62 63 64 65 66 67 71 73 74 75 81 92 93 102 103 104 144 145 146 147 148 149 150 151 152 160 168 169 170 171 172 173 174 175 176 178 180 193 195 196 197 201 205 206 207 209 210 212 215 216 217 218 219 0
2 3 4 5 8 19 20 21 22 23 32 33 35 36 68 76 77 78 82 83 84 85 86 87 88 89 90 91 95 96 97 109 110 111 112 113 114 115 116 117 118 119 120 121 122 123 124 125 126 127 128 129 130 131 132 133 134 135 136 137 138 139 141 143 153 181 182 183 188 189 190 198 199 200 202 203 208 213 214 0
2 3 4 5 8 19 20 21 22 23 32 33 35 36 68 76 77 78 82 83 84 85 86 87 88 89 90 91 95 96 97 109 110 111 112 113 114 115 116 117 118 119 120 121 122 123 124 125 126 127 128 129 130 131 132 133 134 135 136 137 138 139 141 153 181 182 183 188 189 190 198 199 200 202 203 208 213 214 0
10 11 12 25 29 31 37 38 48 49 50 51 52 53 54 55 56 57 58 59 62 63 73 74 75 102 103 104 192 209 210 220 0
10 11 12 25 29 31 34 37 38 45 48 49 50 51 52 53 54 55 56 57 58 59 62 63 67 73 74 75 102 103 104 168 169 170 176 192 197 209 210 215 220 0
6 7 9 39 40 41 42 43 44 61 80 98 99 100 155 163 164 184 185 187 204 211 0
6 7 9 39 40 41 42 43 44 61 80 98 99 100 155 163 164 184 185 187 204 211 0
6 7 9 39 40 41 42 43 44 61 80 98 99 100 155 163 164 184 185 187 204 211 0
6 7 9 39 40 41 42 43 44 61 80 98 99 100 155 163 164 184 185 187 204 211 0
6 7 9 39 40 41 42 43 44 61 80 98 99 100 155 163 164 184 185 187 204 211 0
6 7 9 39 40 41 42 43 44 61 80 98 99 100 155 163 164 184 185 187 204 211 0
11 12 25 29 30 31 38 45 48 49 50 52 55 56 57 58 59 62 63 74 75 102 103 104 209 210 0
14 15 16 17 18 34 46 64 65 66 67 71 81 142 144 145 146 147 148 149 150 151 160 162 167 168 169 170 171 172 173 174 175 176 178 180 193 194 195 196 197 201 206 207 215 216 217 218 219 0
1 15 28 47 92 93 154 166 205 0
10 11 12 25 29 31 34 37 38 45 48 49 50 51 52 53 54 55 56 57 58 59 62 63 67 73 74 75 102 103 104 168 169 170 176 192 197 209 210 215 220 0
10 11 12 25 29 31 34 37 38 45 48 49 50 51 52 53 54 55 56 57 58 59 62 63 67 73 74 75 102 103 104 168 169 170 176 192 197 209 210 215 220 0
10 11 12 25 29 31 34 37 38 45 48 49 50 51 52 53 54 55 56 57 58 59 62 63 67 73 74 75 102 103 104 168 169 170 176 192 197 209 210 215 220 0
10 11 12 25 29 31 34 37 38 48 49 50 51 52 53 54 55 56 57 58 59 62 63 67 73 74 75 102 103 104 168 169 170 176 192 197 209 210 215 220 0
10 11 12 25 29 31 37 38 45 48 49 50 51 52 53 54 55 56 57 58 59 62 63 73 74 75 102 103 104 168 192 209 210 220 0
10 11 12 25 29 31 37 38 48 49 50 51 52 53 54 55 56 57 58 59 62 63 73 74 75 101 102 103 104 192 209 210 220 0
10 11 12 25 29 31 37 38 48 49 50 51 52 53 54 55 56 57 58 59 62 63 73 74 75 101 102 103 104 192 209 210 220 0
10 11 12 25 29 31 34 37 38 45 48 49 50 51 52 53 54 55 56 57 58 59 62 63 67 73 74 75 102 103 104 168 169 170 176 192 197 209 210 215 220 0
10 11 12 25 29 31 34 37 38 45 48 49 50 51 52 53 54 55 56 57 58 59 62 63 67 73 74 75 102 103 104 168 169 170 176 192 197 209 210 215 220 0
10 11 12 25 29 31 34 37 38 45 48 49 50 51 52 53 54 55 56 57 58 59 62 63 67 73 74 75 102 103 104 168 169 170 176 192 197 209 210 215 220 0
10 11 12 25 29 31 34 37 38 45 48 49 50 51 52 53 54 55 56 57 58 59 62 63 67 73 74 75 102 103 104 168 169 170 176 192 209 210 215 220 0
10 11 12 25 29 31 34 37 38 45 48 49 50 51 52 53 54 55 56 57 58 59 62 63 67 73 74 75 102 103 104 168 169 170 176 192 197 209 210 215 220 0
60 70 142 152 162 167 177 186 194 212 0
6 7 9 39 40 41 42 43 44 61 80 98 99 100 155 163 164 184 185 187 204 211 0
10 11 12 25 29 31 34 37 38 45 48 49 50 51 52 53 54 55 56 57 58 59 62 63 67 73 74 75 102 103 104 168 169 170 176 192 197 209 210 215 220 0
10 11 12 25 29 31 34 37 38 45 48 49 50 51 52 53 54 55 56 57 58 59 62 63 67 73 74 75 102 103 104 168 169 170 176 192 197 209 210 215 220 0
14 15 16 17 18 34 46 64 65 66 67 71 81 142 144 145 146 147 148 149 150 151 160 167 168 169 170 171 172 173 174 175 176 178 180 193 194 195 196 197 201 206 207 215 216 217 218 219 0
14 15 16 17 18 34 46 64 65 66 67 71 81 142 144 145 146 147 148 149 150 151 160 167 168 169 170 171 172 173 174 175 176 178 180 193 194 195 196 197 201 206 207 215 216 217 218 219 0
14 15 16 17 18 34 46 64 65 66 67 71 81 142 144 145 146 147 148 149 150 151 160 167 168 169 170 171 172 173 174 175 176 178 180 193 194 195 196 197 201 206 207 215 216 217 218 219 0
10 11 12 14 15 17 18 25 31 34 38 46 48 49 50 51 55 56 57 58 59 62 63 64 65 66 67 71 73 74 75 81 92 93 102 103 104 144 145 146 147 148 149 150 151 152 160 168 169 170 171 172 173 174 175 176 178 180 193 195 196 197 201 205 206 207 209 210 215 216 217 218 219 0
2 3 4 5 8 19 21 23 32 33 35 36 68 77 78 82 83 84 85 86 87 88 91 95 96 97 109 110 111 112 113 114 115 116 117 118 119 120 121 122 123 124 125 126 127 128 129 130 131 132 133 134 135 136 137 138 139 141 153 181 183 188 190 198 199 200 202 203 208 213 214 0
1 30 69 154 166 0
60 70 152 162 167 177 186 194 212 0
14 15 16 17 18 34 46 64 65 66 67 71 81 142 144 145 146 147 148 149 150 151 160 167 168 169 170 171 172 173 174 175 176 178 180 193 195 196 197 201 206 207 215 216 217 218 219 0
26 27 72 101 105 106 107 108 161 179 186 191 0
10 11 12 25 29 31 34 37 38 48 49 50 51 52 53 54 55 56 57 58 59 62 63 67 73 74 75 102 103 104 168 169 170 176 192 197 209 210 215 220 0
10 11 12 25 29 31 34 37 38 45 48 49 50 51 52 53 54 55 56 57 58 59 62 63 67 73 74 75 102 103 104 168 169 170 176 192 197 209 210 215 220 0
10 11 12 25 29 31 34 37 38 45 48 49 50 51 52 53 54 55 56 57 58 59 62 63 67 73 74 75 102 103 104 168 169 170 176 192 197 209 210 215 220 0
2 3 4 5 8 19 20 21 22 23 32 33 35 36 76 77 78 82 83 84 85 86 87 88 89 90 91 95 96 97 109 110 111 112 113 114 115 116 117 118 119 120 121 122 123 124 125 126 127 128 129 130 131 132 133 134 135 136 137 138 139 141 153 181 182 183 188 189 190 198 199 200 202 203 208 213 214 0
2 3 4 5 8 19 20 21 22 23 32 33 35 36 68 76 77 78 82 83 84 85 86 87 88 89 90 91 95 96 97 109 110 111 112 113 114 115 116 117 118 119 120 121 122 123 124 125 126 127 128 129 130 131 132 133 134 135 136 137 138 139 141 153 181 182 183 188 189 190 198 199 200 202 203 208 213 214 0
2 3 4 5 8 19 20 21 22 23 32 33 35 36 68 76 77 78 82 83 84 85 86 87 88 89 90 91 95 96 97 109 110 111 112 113 114 115 116 117 118 119 120 121 122 123 124 125 126 127 128 129 130 131 132 133 134 135 136 137 138 139 141 153 181 182 183 188 189 190 198 199 200 202 203 208 213 214 0
79 0
6 7 9 39 40 41 42 43 44 61 80 98 99 100 155 163 164 184 185 187 204 211 0
14 16 17 18 34 46 64 65 66 67 71 81 142 144 145 146 147 148 149 150 151 152 160 162 167 170 171 172 173 174 175 176 178 180 193 194 195 196 201 206 207 215 216 217 218 219 0
2 3 4 5 8 19 20 21 22 23 32 33 35 36 68 76 77 78 82 83 84 85 86 87 88 89 90 91 95 96 97 109 110 111 112 113 114 115 116 117 118 119 120 121 122 123 124 125 126 127 128 129 130 131 132 133 134 135 136 137 138 139 141 153 181 182 183 188 189 190 198 199 200 202 203 208 213 214 0
2 3 4 5 8 19 20 21 22 23 32 33 35 36 68 76 77 78 82 83 84 85 86 87 88 89 90 91 95 96 97 109 110 111 112 113 114 115 116 117 118 119 120 121 122 123 124 125 126 127 128 129 130 131 132 133 134 135 136 137 138 139 141 153 181 182 183 188 189 190 198 199 200 202 203 208 213 214 0
2 3 4 5 8 19 20 21 22 23 32 33 35 36 68 76 77 78 82 83 84 85 86 87 88 89 90 91 95 96 97 109 110 111 112 113 114 115 116 117 118 119 120 121 122 123 124 125 126 127 128 129 130 131 132 133 134 135 136 137 138 139 141 153 181 182 183 188 189 190 198 199 200 202 203 208 213 214 0
2 3 4 5 8 19 20 21 22 23 32 33 35 36 68 76 77 78 82 83 84 85 86 87 88 89 90 91 95 96 97 109 110 111 112 113 114 115 116 117 118 119 120 121 122 123 124 125 126 127 128 129 130 131 132 133 134 135 136 137 138 139 141 153 181 182 183 188 189 190 198 199 200 202 203 208 213 214 0
2 3 4 5 8 19 20 21 22 23 32 33 35 36 68 76 77 78 82 83 84 85 86 87 88 89 90 91 95 96 97 109 110 111 112 113 114 115 116 117 118 119 120 121 122 123 124 125 126 127 128 129 130 131 132 133 134 135 136 137 138 139 141 153 181 182 183 188 189 190 198 199 200 202 203 208 213 214 0
2 3 4 5 8 19 20 21 22 23 32 33 35 36 68 76 77 78 82 83 84 85 86 87 88 89 90 91 95 96 97 109 110 111 112 113 114 115 116 117 118 119 120 121 122 123 124 125 126 127 128 129 130 131 132 133 134 135 136 137 138 139 141 153 181 182 183 188 189 190 198 199 200 202 203 208 213 214 0
2 3 4 5 8 19 20 21 22 23 32 33 35 36 68 76 77 78 82 83 84 85 86 87 88 89 90 91 95 96 97 109 110 111 112 113 114 115 116 117 118 119 120 121 122 123 124 125 126 127 128 129 130 131 132 133 134 135 136 137 138 139 141 153 181 182 183 188 189 190 198 199 200 202 203 208 213 214 0
2 3 4 5 8 19 20 21 22 23 32 33 35 36 76 77 78 82 83 84 85 86 87 88 89 90 91 95 96 97 109 110 111 112 113 114 115 116 117 118 119 120 121 122 123 124 125 126 127 128 129 130 131 132 133 134 135 136 137 138 139 141 153 181 182 183 188 189 190 198 199 200 202 203 208 213 214 0
2 3 4 5 8 19 20 21 22 23 32 33 35 36 76 77 78 82 83 84 85 86 87 88 89 90 91 95 96 97 109 110 111 112 113 114 115 116 117 118 119 120 121 122 123 124 125 126 127 128 129 130 131 132 133 134 135 136 137 138 139 141 153 181 182 183 188 189 190 198 199 200 202 203 208 213 214 0
2 3 4 5 8 19 20 21 22 23 32 33 35 36 68 76 77 78 82 83 84 85 86 87 88 89 90 91 95 96 97 109 110 111 112 113 114 115 116 117 118 119 120 121 122 123 124 125 126 127 128 129 130 131 132 133 134 135 136 137 138 139 141 153 181 182 183 188 189 190 198 199 200 202 203 208 213 214 0
15 28 34 47 67 92 93 154 166 170 176 197 205 215 0
15 28 34 47 67 92 93 154 166 170 176 197 205 215 0
13 94 140 143 156 159 0
2 3 4 5 8 19 20 21 22 23 32 33 35 36 68 76 77 78 82 83 84 85 86 87 88 89 90 91 95 96 97 109 110 111 112 113 114 115 116 117 118 119 120 121 122 123 124 125 126 127 128 129 130 131 132 133 134 135 136 137 138 139 141 153 181 182 183 188 189 190 198 199 200 202 203 208 213 214 0
2 3 4 5 8 19 20 21 22 23 32 33 35 36 68 76 77 78 82 83 84 85 86 87 88 89 90 91 95 96 97 109 110 111 112 113 114 115 116 117 118 119 120 121 122 123 124 125 126 127 128 129 130 131 132 133 134 135 136 137 138 139 141 153 181 182 183 188 189 190 198 199 200 202 203 208 213 214 0
2 3 4 5 8 19 20 21 22 23 32 33 35 36 68 76 77 78 82 83 84 85 86 87 88 89 90 91 95 96 97 109 110 111 112 113 114 115 116 117 118 119 120 121 122 123 124 125 126 127 128 129 130 131 132 133 134 135 136 137 138 139 141 153 181 182 183 188 189 190 198 199 200 202 203 208 213 214 0
6 7 9 39 40 41 42 43 44 61 80 98 99 100 155 163 164 184 185 187 204 211 0
6 7 9 39 40 41 42 43 44 61 80 98 99 100 155 163 164 184 185 187 204 211 0
6 7 9 39 40 41 42 43 44 61 80 98 99 100 155 163 164 184 185 187 204 211 0
26 27 53 54 72 101 105 106 107 108 161 179 186 191 0
10 11 12 25 29 31 34 37 38 45 48 49 50 51 52 53 54 55 56 57 58 59 62 63 67 73 74 75 102 103 104 168 169 170 176 192 197 209 210 215 220 0
10 11 12 25 29 31 34 37 38 45 48 49 50 51 52 53 54 55 56 57 58 59 62 63 67 73 74 75 102 103 104 168 169 170 176 192 197 209 210 215 220 0
10 11 12 25 29 31 34 37 38 45 48 49 50 51 52 53 54 55 56 57 58 59 62 63 67 73 74 75 102 103 104 168 169 170 176 192 197 209 210 215 220 0
26 27 72 101 105 106 107 108 161 179 186 191 0
26 27 72 101 105 106 107 108 161 179 186 191 0
26 27 72 101 105 106 107 108 161 179 191 0
26 27 72 101 105 106 107 108 161 179 191 0
2 3 4 5 8 19 20 21 22 23 32 33 35 36 68 76 77 78 82 83 84 85 86 87 88 89 90 91 95 96 97 109 110 111 112 113 114 115 116 117 118 119 120 121 122 123 124 125 126 127 128 129 130 131 132 133 134 135 136 137 138 139 141 153 181 182 183 188 189 190 198 199 200 202 203 208 213 214 0
2 3 4 5 8 19 20 21 22 23 32 33 35 36 68 76 77 78 82 83 84 85 86 87 88 89 90 91 95 96 97 109 110 111 112 113 114 115 116 117 118 119 120 121 122 123 124 125 126 127 128 129 130 131 132 133 134 135 136 137 138 139 141 153 181 182 183 188 189 190 198 199 200 202 203 208 213 214 0
2 3 4 5 8 19 20 21 22 23 32 33 35 36 68 76 77 78 82 83 84 85 86 87 88 89 90 91 95 96 97 109 110 111 112 113 114 115 116 117 118 119 120 121 122 123 124 125 126 127 128 129 130 131 132 133 134 135 136 137 138 139 141 153 181 182 183 188 189 190 198 199 200 202 203 208 213 214 0
2 3 4 5 8 19 20 21 22 23 32 33 35 36 68 76 77 78 82 83 84 85 86 87 88 89 90 91 95 96 97 109 110 111 112 113 114 115 116 117 118 119 120 121 122 123 124 125 126 127 128 129 130 131 132 133 134 135 136 137 138 139 141 153 181 182 183 188 189 190 198 199 200 202 203 208 213 214 0
2 3 4 5 8 19 20 21 22 23 32 33 35 36 68 76 77 78 82 83 84 85 86 87 88 89 90 91 95 96 97 109 110 111 112 113 114 115 116 117 118 119 120 121 122 123 124 125 126 127 128 129 130 131 132 133 134 135 136 137 138 139 141 153 181 182 183 188 189 190 198 199 200 202 203 208 213 214 0
2 3 4 5 8 19 20 21 22 23 32 33 35 36 68 76 77 78 82 83 84 85 86 87 88 89 90 91 95 96 97 109 110 111 112 113 114 115 116 117 118 119 120 121 122 123 124 125 126 127 128 129 130 131 132 133 134 135 136 137 138 139 141 153 181 182 183 188 189 190 198 199 200 202 203 208 213 214 0
2 3 4 5 8 19 20 21 22 23 32 33 35 36 68 76 77 78 82 83 84 85 86 87 88 89 90 91 95 96 97 109 110 111 112 113 114 115 116 117 118 119 120 121 122 123 124 125 126 127 128 129 130 131 132 133 134 135 136 137 138 139 141 153 181 182 183 188 189 190 198 199 200 202 203 208 213 214 0
2 3 4 5 8 19 20 21 22 23 32 33 35 36 68 76 77 78 82 83 84 85 86 87 88 89 90 91 95 96 97 109 110 111 112 113 114 115 116 117 118 119 120 121 122 123 124 125 126 127 128 129 130 131 132 133 134 135 136 137 138 139 141 153 181 182 183 188 189 190 198 199 200 202 203 208 213 214 0
2 3 4 5 8 19 20 21 22 23 32 33 35 36 68 76 77 78 82 83 84 85 86 87 88 89 90 91 95 96 97 109 110 111 112 113 114 115 116 117 118 119 120 121 122 123 124 125 126 127 128 129 130 131 132 133 134 135 136 137 138 139 141 153 181 182 183 188 189 190 198 199 200 202 203 208 213 214 0
2 3 4 5 8 19 20 21 22 23 32 33 35 36 68 76 77 78 82 83 84 85 86 87 88 89 90 91 95 96 97 109 110 111 112 113 114 115 116 117 118 119 120 121 122 123 124 125 126 127 128 129 130 131 132 133 134 135 136 137 138 139 141 153 181 182 183 188 189 190 198 199 200 202 203 208 213 214 0
2 3 4 5 8 19 20 21 22 23 32 33 35 36 68 76 77 78 82 83 84 85 86 87 88 89 90 91 95 96 97 109 110 111 112 113 114 115 116 117 118 119 120 121 122 123 124 125 126 127 128 129 130 131 132 133 134 135 136 137 138 139 141 153 181 182 183 188 189 190 198 199 200 202 203 208 213 214 0
2 3 4 5 8 19 20 21 22 23 32 33 35 36 68 76 77 78 82 83 84 85 86 87 88 89 90 91 95 96 97 109 110 111 112 113 114 115 116 117 118 119 120 121 122 123 124 125 126 127 128 129 130 131 132 133 134 135 136 137 138 139 141 153 181 182 183 188 189 190 198 199 200 202 203 208 213 214 0
2 3 4 5 8 19 20 21 22 23 32 33 35 36 68 76 77 78 82 83 84 85 86 87 88 89 90 91 95 96 97 109 110 111 112 113 114 115 116 117 118 119 120 121 122 123 124 125 126 127 128 129 130 131 132 133 134 135 136 137 138 139 141 153 181 182 183 188 189 190 198 199 200 202 203 208 213 214 0
2 3 4 5 8 19 20 21 22 23 32 33 35 36 68 76 77 78 82 83 84 85 86 87 88 89 90 91 95 96 97 109 110 111 112 113 114 115 116 117 118 119 120 121 122 123 124 125 126 127 128 129 130 131 132 133 134 135 136 137 138 139 141 153 181 182 183 188 189 190 198 199 200 202 203 208 213 214 0
2 3 4 5 8 19 20 21 22 23 32 33 35 36 68 76 77 78 82 83 84 85 86 87 88 89 90 91 95 96 97 109 110 111 112 113 114 115 116 117 118 119 120 121 122 123 124 125 126 127 128 129 130 131 132 133 134 135 136 137 138 139 141 153 181 182 183 188 189 190 198 199 200 202 203 208 213 214 0
2 3 4 5 8 19 20 21 22 23 32 33 35 36 68 76 77 78 82 83 84 85 86 87 88 89 90 91 95 96 97 109 110 111 112 113 114 115 116 117 118 119 120 121 122 123 124 125 126 127 128 129 130 131 132 133 134 135 136 137 138 139 141 153 181 182 183 188 189 190 198 199 200 202 203 208 213 214 0
2 3 4 5 8 19 20 21 22 23 32 33 35 36 68 76 77 78 82 83 84 85 86 87 88 89 90 91 95 96 97 109 110 111 112 113 114 115 116 117 118 119 120 121 122 123 124 125 126 127 128 129 130 131 132 133 134 135 136 137 138 139 141 153 181 182 183 188 189 190 198 199 200 202 203 208 213 214 0
2 3 4 5 8 19 20 21 22 23 32 33 35 36 68 76 77 78 82 83 84 85 86 87 88 89 90 91 95 96 97 109 110 111 112 113 114 115 116 117 118 119 120 121 122 123 124 125 126 127 128 129 130 131 132 133 134 135 136 137 138 139 141 153 181 182 183 188 189 190 198 199 200 202 203 208 213 214 0
2 3 4 5 8 19 20 21 22 23 32 33 35 36 68 76 77 78 82 83 84 85 86 87 88 89 90 91 95 96 97 109 110 111 112 113 114 115 116 117 118 119 120 121 122 123 124 125 126 127 128 129 130 131 132 133 134 135 136 137 138 139 141 153 181 182 183 188 189 190 198 199 200 202 203 208 213 214 0
2 3 4 5 8 19 20 21 22 23 32 33 35 36 68 76 77 78 82 83 84 85 86 87 88 89 90 91 95 96 97 109 110 111 112 113 114 115 116 117 118 119 120 121 122 123 124 125 126 127 128 129 130 131 132 133 134 135 136 137 138 139 141 153 181 182 183 188 189 190 198 199 200 202 203 208 213 214 0
2 3 4 5 8 19 20 21 22 23 32 33 35 36 68 76 77 78 82 83 84 85 86 87 88 89 90 91 95 96 97 109 110 111 112 113 114 115 116 117 118 119 120 121 122 123 124 125 126 127 128 129 130 131 132 133 134 135 136 137 138 139 141 153 181 182 183 188 189 190 198 199 200 202 203 208 213 214 0
2 3 4 5 8 19 20 21 22 23 32 33 35 36 68 76 77 78 82 83 84 85 86 87 88 89 90 91 95 96 97 109 110 111 112 113 114 115 116 117 118 119 120 121 122 123 124 125 126 127 128 129 130 131 132 133 134 135 136 137 138 139 141 153 181 182 183 188 189 190 198 199 200 202 203 208 213 214 0
2 3 4 5 8 19 20 21 22 23 32 33 35 36 68 76 77 78 82 83 84 85 86 87 88 89 90 91 95 96 97 109 110 111 112 113 114 115 116 117 118 119 120 121 122 123 124 125 126 127 128 129 130 131 132 133 134 135 136 137 138 139 141 153 181 182 183 188 189 190 198 199 200 202 203 208 213 214 0
2 3 4 5 8 19 20 21 22 23 32 33 35 36 68 76 77 78 82 83 84 85 86 87 88 89 90 91 95 96 97 109 110 111 112 113 114 115 116 117 118 119 120 121 122 123 124 125 126 127 128 129 130 131 132 133 134 135 136 137 138 139 141 153 181 182 183 188 189 190 198 199 200 202 203 208 213 214 0
2 3 4 5 8 19 20 21 22 23 32 33 35 36 68 76 77 78 82 83 84 85 86 87 88 89 90 91 95 96 97 109 110 111 112 113 114 115 116 117 118 119 120 121 122 123 124 125 126 127 128 129 130 131 132 133 134 135 136 137 138 139 141 153 181 182 183 188 189 190 198 199 200 202 203 208 213 214 0
2 3 4 5 8 19 20 21 22 23 32 33 35 36 68 76 77 78 82 83 84 85 86 87 88 89 90 91 95 96 97 109 110 111 112 113 114 115 116 117 118 119 120 121 122 123 124 125 126 127 128 129 130 131 132 133 134 135 136 137 138 139 141 153 181 182 183 188 189 190 198 199 200 202 203 208 213 214 0
2 3 4 5 8 19 20 21 22 23 32 33 35 36 68 76 77 78 82 83 84 85 86 87 88 89 90 91 95 96 97 109 110 111 112 113 114 115 116 117 118 119 120 121 122 123 124 125 126 127 128 129 130 131 132 133 134 135 136 137 138 139 141 153 181 182 183 188 189 190 198 199 200 202 203 208 213 214 0
2 3 4 5 8 19 20 21 22 23 32 33 35 36 68 76 77 78 82 83 84 85 86 87 88 89 90 91 95 96 97 109 110 111 112 113 114 115 116 117 118 119 120 121 122 123 124 125 126 127 128 129 130 131 132 133 134 135 136 137 138 139 141 153 181 182 183 188 189 190 198 199 200 202 203 208 213 214 0
2 3 4 5 8 19 20 21 22 23 32 33 35 36 68 76 77 78 82 83 84 85 86 87 88 89 90 91 95 96 97 109 110 111 112 113 114 115 116 117 118 119 120 121 122 123 124 125 126 127 128 129 130 131 132 133 134 135 136 137 138 139 141 153 181 182 183 188 189 190 198 199 200 202 203 208 213 214 0
2 3 4 5 8 19 20 21 22 23 32 33 35 36 68 76 77 78 82 83 84 85 86 87 88 89 90 91 95 96 97 109 110 111 112 113 114 115 116 117 118 119 120 121 122 123 124 125 126 127 128 129 130 131 132 133 134 135 136 137 138 139 141 153 181 182 183 188 189 190 198 199 200 202 203 208 213 214 0
2 3 4 5 8 19 20 21 22 23 32 33 35 36 68 76 77 78 82 83 84 85 86 87 88 89 90 91 95 96 97 109 110 111 112 113 114 115 116 117 118 119 120 121 122 123 124 125 126 127 128 129 130 131 132 133 134 135 136 137 138 139 141 153 181 182 183 188 189 190 198 199 200 202 203 208 213 214 0
13 94 140 156 159 0
2 3 4 5 8 19 20 21 22 23 32 33 35 36 68 76 77 78 82 83 84 85 86 87 88 89 90 91 95 96 97 109 110 111 112 113 114 115 116 117 118 119 120 121 122 123 124 125 126 127 128 129 130 131 132 133 134 135 136 137 138 139 141 153 181 182 183 188 189 190 198 199 200 202 203 208 213 214 0
14 16 17 18 46 60 64 65 66 71 81 142 144 145 146 147 148 149 150 151 152 160 162 167 171 172 173 174 175 177 178 180 193 194 195 196 201 206 207 212 216 217 218 219 0
35 94 143 198 0
14 15 16 17 18 34 46 64 65 66 67 71 81 142 144 145 146 147 148 149 150 151 160 167 168 169 170 171 172 173 174 175 176 178 180 193 194 195 196 197 201 206 207 215 216 217 218 219 0
14 15 16 17 18 34 46 64 65 66 67 71 81 142 144 145 146 147 148 149 150 151 160 162 167 170 171 172 173 174 175 176 178 180 193 194 195 196 197 201 206 207 215 216 217 218 219 0
14 15 16 17 18 34 46 64 65 66 67 71 81 142 144 145 146 147 148 149 150 151 160 167 168 169 170 171 172 173 174 175 176 178 180 193 195 196 197 201 206 207 215 216 217 218 219 0
14 15 16 17 18 34 46 64 65 66 67 71 81 142 144 145 146 147 148 149 150 151 160 168 169 170 171 172 173 174 175 176 178 180 193 195 196 197 201 206 207 215 216 217 218 219 0
14 15 16 17 18 34 46 64 65 66 67 71 81 142 144 145 146 147 148 149 150 151 152 160 162 167 168 169 170 171 172 173 174 175 176 178 180 193 194 195 196 197 201 206 207 212 215 216 217 218 219 0
14 15 16 17 18 34 46 64 65 66 67 71 81 142 144 145 146 147 148 149 150 151 160 167 168 169 170 171 172 173 174 175 176 178 180 193 194 195 196 197 201 206 207 215 216 217 218 219 0
14 15 16 17 18 34 46 64 65 66 67 71 81 142 144 145 146 147 148 149 150 151 152 160 162 167 168 169 170 171 172 173 174 175 176 178 180 193 194 195 196 197 201 206 207 212 215 216 217 218 219 0
14 15 16 17 18 34 46 64 65 66 67 71 81 142 144 145 146 147 148 149 150 151 160 167 168 169 170 171 172 173 174 175 176 178 180 193 194 195 196 197 201 206 207 215 216 217 218 219 0
10 16 34 60 67 70 81 142 148 150 152 162 167 168 169 170 176 177 186 194 197 212 215 0
2 3 4 5 8 19 20 21 22 23 32 33 35 36 68 76 77 78 82 83 84 85 86 87 88 89 90 91 95 96 97 109 110 111 112 113 114 115 116 117 118 119 120 121 122 123 124 125 126 127 128 129 130 131 132 133 134 135 136 137 138 139 141 153 181 182 183 188 189 190 198 199 200 202 203 208 213 214 0
1 15 28 47 69 92 93 154 166 205 0
6 7 9 39 40 41 42 43 44 61 80 98 99 100 155 163 164 184 185 187 204 211 0
13 94 140 156 159 0
24 157 158 0
24 157 158 0
13 94 140 156 159 0
14 15 16 17 18 34 46 64 65 66 67 71 81 142 144 145 146 147 148 149 150 151 160 167 168 169 170 171 172 173 174 175 176 178 180 193 194 195 196 197 201 206 207 215 216 217 218 219 0
26 27 72 101 105 106 107 108 161 179 186 191 0
16 18 46 60 70 81 142 145 148 150 152 162 167 177 186 194 206 207 212 219 0
6 7 9 39 40 41 42 43 44 61 80 98 99 100 155 163 164 184 185 187 204 211 0
6 7 9 39 40 41 42 43 44 61 80 98 99 100 155 163 164 184 185 187 204 211 0
165 0
1 15 28 30 47 69 92 93 154 166 205 0
14 16 17 18 46 60 64 65 66 70 71 81 142 144 145 146 148 149 150 151 152 160 162 167 171 177 178 193 194 195 201 206 207 212 217 219 0
10 11 12 14 17 25 29 31 34 38 46 48 49 50 51 52 55 56 57 58 59 62 63 64 65 66 67 71 73 74 75 102 103 104 144 146 147 148 149 150 151 152 160 168 169 170 171 172 173 174 175 176 178 180 193 196 197 201 206 207 209 210 212 215 217 218 219 0
10 11 12 14 25 29 31 34 38 46 48 49 50 51 55 56 57 58 59 62 63 64 65 66 67 71 73 74 75 102 103 104 144 146 147 148 149 150 151 152 160 168 169 170 171 172 173 174 175 176 178 180 193 196 197 201 206 209 210 212 215 217 218 0
10 11 12 14 15 17 18 25 29 31 34 38 46 48 49 50 51 55 56 57 58 59 62 63 64 65 66 67 71 73 74 75 81 92 93 102 103 104 144 145 146 147 148 149 150 151 152 160 168 169 170 171 172 173 174 175 176 178 180 193 195 196 197 201 205 206 207 209 210 212 215 216 217 218 219 0
14 15 16 17 18 34 46 64 65 66 67 71 81 142 144 145 146 147 148 149 150 151 160 167 168 169 170 171 172 173 174 175 176 178 180 193 195 196 197 201 206 207 215 216 217 218 219 0
14 15 16 17 18 34 46 64 65 66 67 71 81 142 144 145 146 147 148 149 150 151 160 168 169 170 171 172 173 174 175 176 178 180 193 195 196 197 201 206 207 215 216 217 218 219 0
14 15 16 17 18 34 46 64 65 66 67 71 81 142 144 145 146 147 148 149 150 151 160 168 169 170 171 172 173 174 175 176 178 180 193 195 196 197 201 206 207 215 216 217 218 219 0
14 15 16 17 18 34 46 64 65 66 67 71 81 142 144 145 146 147 148 149 150 151 160 168 169 170 171 172 173 174 175 176 178 180 193 195 196 197 201 206 207 215 216 217 218 219 0
14 15 16 17 18 34 46 64 65 66 67 71 81 142 144 145 146 147 148 149 150 151 160 168 169 170 171 172 173 174 175 176 178 180 193 195 196 197 201 206 207 215 216 217 218 219 0
10 11 12 14 15 17 18 25 28 31 34 38 46 48 49 50 51 55 56 57 58 59 62 63 64 65 66 67 71 73 74 75 81 92 93 102 103 104 144 145 146 147 148 149 150 151 152 160 168 169 170 171 172 173 174 175 176 178 180 193 195 196 197 201 205 206 207 209 210 215 216 217 218 219 0
60 70 142 152 162 167 177 186 194 212 0
14 15 16 17 18 34 46 64 65 66 67 71 81 142 144 145 146 147 148 149 150 151 160 167 168 169 170 171 172 173 174 175 176 178 180 193 194 195 196 197 201 206 207 215 216 217 218 219 0
26 27 72 101 105 106 107 108 161 179 191 0
14 15 16 17 18 34 46 64 65 66 67 71 81 142 144 145 146 147 148 149 150 151 160 168 169 170 171 172 173 174 175 176 178 180 193 195 196 197 201 206 207 215 216 217 218 219 0
2 3 4 5 8 19 20 21 22 23 32 33 35 36 68 76 77 78 82 83 84 85 86 87 88 89 90 91 95 96 97 109 110 111 112 113 114 115 116 117 118 119 120 121 122 123 124 125 126 127 128 129 130 131 132 133 134 135 136 137 138 139 141 153 181 182 183 188 189 190 198 199 200 202 203 208 213 214 0
2 3 4 5 8 19 20 21 22 23 32 33 35 36 76 77 78 82 83 84 85 86 87 88 89 90 91 95 96 97 109 110 111 112 113 114 115 116 117 118 119 120 121 122 123 124 125 126 127 128 129 130 131 132 133 134 135 136 137 138 139 141 153 181 182 183 188 189 190 198 199 200 202 203 208 213 214 0
2 3 4 5 8 19 20 21 22 23 32 33 35 36 68 76 77 78 82 83 84 85 86 87 88 89 90 91 95 96 97 109 110 111 112 113 114 115 116 117 118 119 120 121 122 123 124 125 126 127 128 129 130 131 132 133 134 135 136 137 138 139 141 153 181 182 183 188 189 190 198 199 200 202 203 208 213 214 0
6 7 9 39 40 41 42 43 44 61 80 98 99 100 155 163 164 184 185 187 204 211 0
6 7 9 39 40 41 42 43 44 61 80 98 99 100 155 163 164 184 185 187 204 211 0
60 70 72 101 105 106 152 161 162 177 186 194 212 0
6 7 9 39 40 41 42 43 44 61 80 98 99 100 155 163 164 184 185 187 204 211 0
2 3 4 5 8 19 20 21 22 23 32 33 35 36 68 76 77 78 82 83 84 85 86 87 88 89 90 91 95 96 97 109 110 111 112 113 114 115 116 117 118 119 120 121 122 123 124 125 126 127 128 129 130 131 132 133 134 135 136 137 138 139 141 153 181 182 183 188 189 190 198 199 200 202 203 208 213 214 0
2 3 4 5 8 19 20 21 22 23 32 33 35 36 76 77 78 82 83 84 85 86 87 88 89 90 91 95 96 97 109 110 111 112 113 114 115 116 117 118 119 120 121 122 123 124 125 126 127 128 129 130 131 132 133 134 135 136 137 138 139 141 153 181 182 183 188 189 190 198 199 200 202 203 208 213 214 0
2 3 4 5 8 19 20 21 22 23 32 33 35 36 68 76 77 78 82 83 84 85 86 87 88 89 90 91 95 96 97 109 110 111 112 113 114 115 116 117 118 119 120 121 122 123 124 125 126 127 128 129 130 131 132 133 134 135 136 137 138 139 141 153 181 182 183 188 189 190 198 199 200 202 203 208 213 214 0
26 27 72 101 105 106 107 108 161 179 191 0
10 11 12 25 29 31 37 38 48 49 50 51 52 53 54 55 56 57 58 59 62 63 73 74 75 102 103 104 192 209 210 220 0
14 15 16 17 18 34 46 64 65 66 67 71 81 142 144 145 146 147 148 149 150 151 160 167 168 169 170 171 172 173 174 175 176 178 180 193 194 195 196 197 201 206 207 215 216 217 218 219 0
16 17 18 46 60 64 65 66 70 81 142 144 145 148 149 150 151 152 160 162 167 177 178 186 193 194 201 206 207 212 219 0
14 15 16 17 18 34 46 64 65 66 67 71 81 142 144 145 146 147 148 149 150 151 160 167 170 171 172 173 174 175 176 178 180 193 195 196 197 201 206 207 215 216 217 218 219 0
14 15 16 17 18 34 46 64 65 66 67 71 81 142 144 145 146 147 148 149 150 151 160 168 169 170 171 172 173 174 175 176 178 180 193 195 196 197 201 206 207 215 216 217 218 219 0
10 11 12 14 15 17 18 25 31 34 38 46 48 49 50 51 55 56 57 59 62 63 64 65 66 67 71 73 74 75 92 93 102 103 104 144 145 146 147 148 149 150 151 152 160 168 169 170 171 172 173 174 175 176 178 180 193 195 196 197 201 205 206 207 210 215 216 217 218 219 0
2 3 4 5 8 19 20 21 22 23 32 33 35 36 68 76 77 78 82 83 84 85 86 87 88 89 90 91 95 96 97 109 110 111 112 113 114 115 116 117 118 119 120 121 122 123 124 125 126 127 128 129 130 131 132 133 134 135 136 137 138 139 141 143 153 181 182 183 188 189 190 198 199 200 202 203 208 213 214 0
2 3 4 5 8 19 20 21 22 23 32 33 35 36 68 76 77 78 82 83 84 85 86 87 88 89 90 91 95 96 97 109 110 111 112 113 114 115 116 117 118 119 120 121 122 123 124 125 126 127 128 129 130 131 132 133 134 135 136 137 138 139 141 153 181 182 183 188 189 190 198 199 200 202 203 208 213 214 0
2 3 4 5 8 19 20 21 22 23 32 33 35 36 68 76 77 78 82 83 84 85 86 87 88 89 90 91 95 96 97 109 110 111 112 113 114 115 116 117 118 119 120 121 122 123 124 125 126 127 128 129 130 131 132 133 134 135 136 137 138 139 141 153 181 182 183 188 189 190 198 199 200 202 203 208 213 214 0
14 15 16 17 18 34 46 64 65 66 67 71 81 142 144 145 146 147 148 149 150 151 160 167 168 169 170 171 172 173 174 175 176 178 180 193 194 195 196 197 201 206 207 215 216 217 218 219 0
2 3 4 5 8 19 20 21 22 23 32 33 35 36 68 76 77 78 82 83 84 85 86 87 88 89 90 91 95 96 97 109 110 111 112 113 114 115 116 117 118 119 120 121 122 123 124 125 126 127 128 129 130 131 132 133 134 135 136 137 138 139 141 153 181 182 183 188 189 190 198 199 200 202 203 208 213 214 0
2 3 4 5 8 19 20 21 22 23 32 33 35 36 68 76 77 78 82 83 84 85 86 87 88 89 90 91 95 96 97 109 110 111 112 113 114 115 116 117 118 119 120 121 122 123 124 125 126 127 128 129 130 131 132 133 134 135 136 137 138 139 141 153 181 182 183 188 189 190 198 199 200 202 203 208 213 214 0
6 7 9 39 40 41 42 43 44 61 80 98 99 100 155 163 164 184 185 187 204 211 0
15 28 34 47 67 92 93 154 166 170 176 197 205 215 0
14 15 16 17 18 34 46 64 65 66 67 71 81 142 144 145 146 147 148 149 150 151 160 162 167 168 169 170 171 172 173 174 175 176 178 180 193 194 195 196 197 201 206 207 215 216 217 218 219 0
14 15 16 17 18 34 46 64 65 66 67 71 81 142 144 145 146 147 148 149 150 151 160 162 167 168 170 171 172 173 174 175 176 178 180 193 194 195 196 197 201 206 207 215 216 217 218 219 0
2 3 4 5 8 19 20 21 22 23 32 33 35 36 68 76 77 78 82 83 84 85 86 87 88 89 90 91 95 96 97 109 110 111 112 113 114 115 116 117 118 119 120 121 122 123 124 125 126 127 128 129 130 131 132 133 134 135 136 137 138 139 141 153 181 182 183 188 189 190 198 199 200 202 203 208 213 214 0
10 11 12 25 29 31 34 37 38 45 48 49 50 51 52 53 54 55 56 57 58 59 62 63 67 73 74 75 102 103 104 168 169 170 176 192 209 210 215 220 0
10 11 12 25 29 31 34 37 38 45 48 49 50 51 52 53 54 55 56 57 58 59 62 63 67 73 74 75 102 103 104 168 169 170 176 192 197 209 210 215 220 0
6 7 9 39 40 41 42 43 44 61 80 98 99 100 155 163 164 184 185 187 204 211 0
10 16 34 60 70 142 148 150 152 162 167 168 169 170 177 186 194 212 0
2 3 4 5 8 19 20 21 22 23 32 33 35 36 68 76 77 78 82 83 84 85 86 87 88 89 90 91 95 96 97 109 110 111 112 113 114 115 116 117 118 119 120 121 122 123 124 125 126 127 128 129 130 131 132 133 134 135 136 137 138 139 141 153 181 182 183 188 189 190 198 199 200 202 203 208 213 214 0
2 3 4 5 8 19 20 21 22 23 32 33 35 36 68 76 77 78 82 83 84 85 86 87 88 89 90 91 95 96 97 109 110 111 112 113 114 115 116 117 118 119 120 121 122 123 124 125 126 127 128 129 130 131 132 133 134 135 136 137 138 139 141 153 181 182 183 188 189 190 198 199 200 202 203 208 213 214 0
10 11 12 14 15 17 18 25 31 34 38 46 48 49 50 51 55 56 57 58 59 62 63 64 65 66 67 71 73 74 75 81 92 93 102 103 104 144 145 146 147 148 149 150 151 152 160 168 169 170 171 172 173 174 175 176 178 180 193 195 196 197 201 205 206 207 209 210 215 216 217 218 219 0
14 15 16 17 18 34 46 64 65 66 67 71 81 142 144 145 146 147 148 149 150 151 160 170 171 172 173 174 175 176 178 180 193 195 196 197 201 206 207 215 216 217 218 219 0
14 15 16 17 18 34 46 64 65 66 67 71 81 142 144 145 146 147 148 149 150 151 160 167 168 169 170 171 172 173 174 175 176 178 180 193 195 196 197 201 206 207 215 216 217 218 219 0
14 15 16 17 18 34 46 64 65 66 67 71 81 142 144 145 146 147 148 149 150 151 160 168 169 170 171 172 173 174 175 176 178 180 193 195 196 197 201 206 207 215 216 217 218 219 0
14 15 16 17 18 34 46 64 65 66 67 71 81 142 144 145 146 147 148 149 150 151 160 162 167 168 170 171 172 173 174 175 176 178 180 193 194 195 196 197 201 206 207 215 216 217 218 219 0
10 11 12 25 29 31 37 38 48 49 50 51 52 53 54 55 56 57 58 59 62 63 73 74 75 102 103 104 192 209 210 220 0
1 221 0
-221 222 0
2 -221 223 0
-223 224 0
3 -223 225 0
-225 226 0
4 -225 227 0
-227 228 0
5 -227 229 0
-229 230 0
6 -229 231 0
-231 232 0
7 -231 233 0
-233 234 0
8 -233 235 0
-235 236 0
9 -235 237 0
-237 238 0
10 -237 239 0
-239 240 0
11 -239 241 0
-241 242 0
12 -241 243 0
-243 244 0
13 -243 245 0
-245 246 0
14 -245 247 0
-247 248 0
15 -247 249 0
-249 250 0
16 -249 251 0
-251 252 0
17 -251 253 0
-253 254 0
18 -253 255 0
-255 256 0
19 -255 257 0
-257 258 0
20 -257 259 0
-259 260 0
21 -259 261 0
-261 262 0
22 -261 263 0
-263 264 0
23 -263 265 0
-265 266 0
24 -265 267 0
-267 268 0
25 -267 269 0
-269 270 0
26 -269 271 0
-271 272 0
27 -271 273 0
-273 274 0
28 -273 275 0
-275 276 0
29 -275 277 0
-277 278 0
30 -277 279 0
-279 280 0
31 -279 281 0
-281 282 0
32 -281 283 0
-283 284 0
33 -283 285 0
-285 286 0
34 -285 287 0
-287 288 0
35 -287 289 0
-289 290 0
36 -289 291 0
-291 292 0
37 -291 293 0
-293 294 0
38 -293 295 0
-295 296 0
39 -295 297 0
-297 298 0
40 -297 299 0
-299 300 0
41 -299 301 0
-301 302 0
42 -301 303 0
-303 304 0
43 -303 305 0
-305 306 0
44 -305 307 0
-307 308 0
45 -307 309 0
-309 310 0
46 -309 311 0
-311 312 0
47 -311 313 0
-313 314 0
48 -313 315 0
-315 316 0
49 -315 317 0
-317 318 0
50 -317 319 0
-319 320 0
51 -319 321 0
-321 322 0
52 -321 323 0
-323 324 0
53 -323 325 0
-325 326 0
54 -325 327 0
-327 328 0
55 -327 329 0
-329 330 0
56 -329 331 0
-331 332 0
57 -331 333 0
-333 334 0
58 -333 335 0
-335 336 0
59 -335 337 0
-337 338 0
60 -337 339 0
-339 340 0
61 -339 341 0
-341 342 0
62 -341 343 0
-343 344 0
63 -343 345 0
-345 346 0
64 -345 347 0
-347 348 0
65 -347 349 0
-349 350 0
66 -349 351 0
-351 352 0
67 -351 353 0
-353 354 0
68 -353 355 0
-355 356 0
69 -355 357 0
-357 358 0
70 -357 359 0
-359 360 0
71 -359 361 0
-361 362 0
72 -361 363 0
-363 364 0
73 -363 365 0
-365 366 0
74 -365 367 0
-367 368 0
75 -367 369 0
-369 370 0
76 -369 371 0
-371 372 0
77 -371 373 0
-373 374 0
78 -373 375 0
-375 376 0
79 -375 377 0
-377 378 0
80 -377 379 0
-379 380 0
81 -379 381 0
-381 382 0
82 -381 383 0
-383 384 0
83 -383 385 0
-385 386 0
84 -385 387 0
-387 388 0
85 -387 389 0
-389 390 0
86 -389 391 0
-391 392 0
87 -391 393 0
-393 394 0
88 -393 395 0
-395 396 0
89 -395 397 0
-397 398 0
90 -397 399 0
-399 400 0
91 -399 401 0
-401 402 0
92 -401 403 0
-403 404 0
93 -403 405 0
-405 406 0
94 -405 407 0
-407 408 0
95 -407 409 0
-409 410 0
96 -409 411 0
-411 412 0
97 -411 413 0
-413 414 0
98 -413 415 0
-415 416 0
99 -415 417 0
-417 418 0
100 -417 419 0
-419 420 0
101 -419 421 0
-421 422 0
102 -421 423 0
-423 424 0
103 -423 425 0
-425 426 0
104 -425 427 0
-427 428 0
105 -427 429 0
-429 430 0
106 -429 431 0
-431 432 0
107 -431 433 0
-433 434 0
108 -433 435 0
-435 436 0
109 -435 437 0
-437 438 0
110 -437 439 0
-439 440 0
111 -439 441 0
-441 442 0
112 -441 443 0
-443 444 0
113 -443 445 0
-445 446 0
114 -445 447 0
-447 448 0
115 -447 449 0
-449 450 0
116 -449 451 0
-451 452 0
117 -451 453 0
-453 454 0
118 -453 455 0
-455 456 0
119 -455 457 0
-457 458 0
120 -457 459 0
-459 460 0
121 -459 461 0
-461 462 0
122 -461 463 0
-463 464 0
123 -463 465 0
-465 466 0
124 -465 467 0
-467 468 0
125 -467 469 0
-469 470 0
126 -469 471 0
-471 472 0
127 -471 473 0
-473 474 0
128 -473 475 0
-475 476 0
129 -475 477 0
-477 478 0
130 -477 479 0
-479 480 0
131 -479 481 0
-481 482 0
132 -481 483 0
-483 484 0
133 -483 485 0
-485 486 0
134 -485 487 0
-487 488 0
135 -487 489 0
-489 490 0
136 -489 491 0
-491 492 0
137 -491 493 0
-493 494 0
138 -493 495 0
-495 496 0
139 -495 497 0
-497 498 0
140 -497 499 0
-499 500 0
141 -499 501 0
-501 502 0
142 -501 503 0
-503 504 0
143 -503 505 0
-505 506 0
144 -505 507 0
-507 508 0
145 -507 509 0
-509 510 0
146 -509 511 0
-511 512 0
147 -511 513 0
-513 514 0
148 -513 515 0
-515 516 0
149 -515 517 0
-517 518 0
150 -517 519 0
-519 520 0
151 -519 521 0
-521 522 0
152 -521 523 0
-523 524 0
153 -523 525 0
-525 526 0
154 -525 527 0
-527 528 0
155 -527 529 0
-529 530 0
156 -529 531 0
-531 532 0
157 -531 533 0
-533 534 0
158 -533 535 0
-535 536 0
159 -535 537 0
-537 538 0
160 -537 539 0
-539 540 0
161 -539 541 0
-541 542 0
162 -541 543 0
-543 544 0
163 -543 545 0
-545 546 0
164 -545 547 0
-547 548 0
165 -547 549 0
-549 550 0
166 -549 551 0
-551 552 0
167 -551 553 0
-553 554 0
168 -553 555 0
-555 556 0
169 -555 557 0
-557 558 0
170 -557 559 0
-559 560 0
171 -559 561 0
-561 562 0
172 -561 563 0
-563 564 0
173 -563 565 0
-565 566 0
174 -565 567 0
-567 568 0
175 -567 569 0
-569 570 0
176 -569 571 0
-571 572 0
177 -571 573 0
-573 574 0
178 -573 575 0
-575 576 0
179 -575 577 0
-577 578 0
180 -577 579 0
-579 580 0
181 -579 581 0
-581 582 0
182 -581 583 0
-583 584 0
183 -583 585 0
-585 586 0
184 -585 587 0
-587 588 0
185 -587 589 0
-589 590 0
186 -589 591 0
-591 592 0
187 -591 593 0
-593 594 0
188 -593 595 0
-595 596 0
189 -595 597 0
-597 598 0
190 -597 599 0
-599 600 0
191 -599 601 0
-601 602 0
192 -601 603 0
-603 604 0
193 -603 605 0
-605 606 0
194 -605 607 0
-607 608 0
195 -607 609 0
-609 610 0
196 -609 611 0
-611 612 0
197 -611 613 0
-613 614 0
198 -613 615 0
-615 616 0
199 -615 617 0
-617 618 0
200 -617 619 0
-619 620 0
201 -619 621 0
-621 622 0
202 -621 623 0
-623 624 0
203 -623 625 0
-625 626 0
204 -625 627 0
-627 628 0
205 -627 629 0
-629 630 0
206 -629 631 0
-631 632 0
207 -631 633 0
-633 634 0
208 -633 635 0
-635 636 0
209 -635 637 0
-637 638 0
210 -637 639 0
-639 640 0
211 -639 0
2 222 0
-222 641 0
3 -222 224 0
-224 642 0
4 -224 226 0
-226 643 0
5 -226 228 0
-228 644 0
6 -228 230 0
-230 645 0
7 -230 232 0
-232 646 0
8 -232 234 0
-234 647 0
9 -234 236 0
-236 648 0
10 -236 238 0
-238 649 0
11 -238 240 0
-240 650 0
12 -240 242 0
-242 651 0
13 -242 244 0
-244 652 0
14 -244 246 0
-246 653 0
15 -246 248 0
-248 654 0
16 -248 250 0
-250 655 0
17 -250 252 0
-252 656 0
18 -252 254 0
-254 657 0
19 -254 256 0
-256 658 0
20 -256 258 0
-258 659 0
21 -258 260 0
-260 660 0
22 -260 262 0
-262 661 0
23 -262 264 0
-264 662 0
24 -264 266 0
-266 663 0
25 -266 268 0
-268 664 0
26 -268 270 0
-270 665 0
27 -270 272 0
-272 666 0
28 -272 274 0
-274 667 0
29 -274 276 0
-276 668 0
30 -276 278 0
-278 669 0
31 -278 280 0
-280 670 0
32 -280 282 0
-282 671 0
33 -282 284 0
-284 672 0
34 -284 286 0
-286 673 0
35 -286 288 0
-288 674 0
36 -288 290 0
-290 675 0
37 -290 292 0
-292 676 0
38 -292 294 0
-294 677 0
39 -294 296 0
-296 678 0
40 -296 298 0
-298 679 0
41 -298 300 0
-300 680 0
42 -300 302 0
-302 681 0
43 -302 304 0
-304 682 0
44 -304 306 0
-306 683 0
45 -306 308 0
-308 684 0
46 -308 310 0
-310 685 0
47 -310 312 0
-312 686 0
48 -312 314 0
-314 687 0
49 -314 316 0
-316 688 0
50 -316 318 0
-318 689 0
51 -318 320 0
-320 690 0
52 -320 322 0
-322 691 0
53 -322 324 0
-324 692 0
54 -324 326 0
-326 693 0
55 -326 328 0
-328 694 0
56 -328 330 0
-330 695 0
57 -330 332 0
-332 696 0
58 -332 334 0
-334 697 0
59 -334 336 0
-336 698 0
60 -336 338 0
-338 699 0
61 -338 340 0
-340 700 0
62 -340 342 0
-342 701 0
63 -342 344 0
-344 702 0
64 -344 346 0
-346 703 0
65 -346 348 0
-348 704 0
66 -348 350 0
-350 705 0
67 -350 352 0
-352 706 0
68 -352 354 0
-354 707 0
69 -354 356 0
-356 708 0
70 -356 358 0
-358 709 0
71 -358 360 0
-360 710 0
72 -360 362 0
-362 711 0
73 -362 364 0
-364 712 0
74 -364 366 0
-366 713 0
75 -366 368 0
-368 714 0
76 -368 370 0
-370 715 0
77 -370 372 0
-372 716 0
78 -372 374 0
-374 717 0
79 -374 376 0
-376 718 0
80 -376 378 0
-378 719 0
81 -378 380 0
-380 720 0
82 -380 382 0
-382 721 0
83 -382 384 0
-384 722 0
84 -384 386 0
-386 723 0
85 -386 388 0
-388 724 0
86 -388 390 0
-390 725 0
87 -390 392 0
-392 726 0
88 -392 394 0
-394 727 0
89 -394 396 0
-396 728 0
90 -396 398 0
-398 729 0
91 -398 400 0
-400 730 0
92 -400 402 0
-402 731 0
93 -402 404 0
-404 732 0
94 -404 406 0
-406 733 0
95 -406 408 0
-408 734 0
96 -408 410 0
-410 735 0
97 -410 412 0
-412 736 0
98 -412 414 0
-414 737 0
99 -414 416 0
-416 738 0
100 -416 418 0
-418 739 0
101 -418 420 0
-420 740 0
102 -420 422 0
-422 741 0
103 -422 424 0
-424 742 0
104 -424 426 0
-426 743 0
105 -426 428 0
-428 744 0
106 -428 430 0
-430 745 0
107 -430 432 0
-432 746 0
108 -432 434 0
-434 747 0
109 -434 436 0
-436 748 0
110 -436 438 0
-438 749 0
111 -438 440 0
-440 750 0
112 -440 442 0
-442 751 0
113 -442 444 0
-444 752 0
114 -444 446 0
-446 753 0
115 -446 448 0
-448 754 0
116 -448 450 0
-450 755 0
117 -450 452 0
-452 756 0
118 -452 454 0
-454 757 0
119 -454 456 0
-456 758 0
120 -456 458 0
-458 759 0
121 -458 460 0
-460 760 0
122 -460 462 0
-462 761 0
123 -462 464 0
-464 762 0
124 -464 466 0
-466 763 0
125 -466 468 0
-468 764 0
126 -468 470 0
-470 765 0
127 -470 472 0
-472 766 0
128 -472 474 0
-474 767 0
129 -474 476 0
-476 768 0
130 -476 478 0
-478 769 0
131 -478 480 0
-480 770 0
132 -480 482 0
-482 771 0
133 -482 484 0
-484 772 0
134 -484 486 0
-486 773 0
135 -486 488 0
-488 774 0
136 -488 490 0
-490 775 0
137 -490 492 0
-492 776 0
138 -492 494 0
-494 777 0
139 -494 496 0
-496 778 0
140 -496 498 0
-498 779 0
141 -498 500 0
-500 780 0
142 -500 502 0
-502 781 0
143 -502 504 0
-504 782 0
144 -504 506 0
-506 783 0
145 -506 508 0
-508 784 0
146 -508 510 0
-510 785 0
147 -510 512 0
-512 786 0
148 -512 514 0
-514 787 0
149 -514 516 0
-516 788 0
150 -516 518 0
-518 789 0
151 -518 520 0
-520 790 0
152 -520 522 0
-522 791 0
153 -522 524 0
-524 792 0
154 -524 526 0
-526 793 0
155 -526 528 0
-528 794 0
156 -528 530 0
-530 795 0
157 -530 532 0
-532 796 0
158 -532 534 0
-534 797 0
159 -534 536 0
-536 798 0
160 -536 538 0
-538 799 0
161 -538 540 0
-540 800 0
162 -540 542 0
-542 801 0
163 -542 544 0
-544 802 0
164 -544 546 0
-546 803 0
165 -546 548 0
-548 804 0
166 -548 550 0
-550 805 0
167 -550 552 0
-552 806 0
168 -552 554 0
-554 807 0
169 -554 556 0
-556 808 0
170 -556 558 0
-558 809 0
171 -558 560 0
-560 810 0
172 -560 562 0
-562 811 0
173 -562 564 0
-564 812 0
174 -564 566 0
-566 813 0
175 -566 568 0
-568 814 0
176 -568 570 0
-570 815 0
177 -570 572 0
-572 816 0
178 -572 574 0
-574 817 0
179 -574 576 0
-576 818 0
180 -576 578 0
-578 819 0
181 -578 580 0
-580 820 0
182 -580 582 0
-582 821 0
183 -582 584 0
-584 822 0
184 -584 586 0
-586 823 0
185 -586 588 0
-588 824 0
186 -588 590 0
-590 825 0
187 -590 592 0
-592 826 0
188 -592 594 0
-594 827 0
189 -594 596 0
-596 828 0
190 -596 598 0
-598 829 0
191 -598 600 0
-600 830 0
192 -600 602 0
-602 831 0
193 -602 604 0
-604 832 0
194 -604 606 0
-606 833 0
195 -606 608 0
-608 834 0
196 -608 610 0
-610 835 0
197 -610 612 0
-612 836 0
198 -612 614 0
-614 837 0
199 -614 616 0
-616 838 0
200 -616 618 0
-618 839 0
201 -618 620 0
-620 840 0
202 -620 622 0
-622 841 0
203 -622 624 0
-624 842 0
204 -624 626 0
-626 843 0
205 -626 628 0
-628 844 0
206 -628 630 0
-630 845 0
207 -630 632 0
-632 846 0
208 -632 634 0
-634 847 0
209 -634 636 0
-636 848 0
210 -636 638 0
-638 849 0
211 -638 640 0
-640 850 0
212 -640 0
3 641 0
-641 851 0
4 -641 642 0
-642 852 0
5 -642 643 0
-643 853 0
6 -643 644 0
-644 854 0
7 -644 645 0
-645 855 0
8 -645 646 0
-646 856 0
9 -646 647 0
-647 857 0
10 -647 648 0
-648 858 0
11 -648 649 0
-649 859 0
12 -649 650 0
-650 860 0
13 -650 651 0
-651 861 0
14 -651 652 0
-652 862 0
15 -652 653 0
-653 863 0
16 -653 654 0
-654 864 0
17 -654 655 0
-655 865 0
18 -655 656 0
-656 866 0
19 -656 657 0
-657 867 0
20 -657 658 0
-658 868 0
21 -658 659 0
-659 869 0
22 -659 660 0
-660 870 0
23 -660 661 0
-661 871 0
24 -661 662 0
-662 872 0
25 -662 663 0
-663 873 0
26 -663 664 0
-664 874 0
27 -664 665 0
-665 875 0
28 -665 666 0
-666 876 0
29 -666 667 0
-667 877 0
30 -667 668 0
-668 878 0
31 -668 669 0
-669 879 0
32 -669 670 0
-670 880 0
33 -670 671 0
-671 881 0
34 -671 672 0
-672 882 0
35 -672 673 0
-673 883 0
36 -673 674 0
-674 884 0
37 -674 675 0
-675 885 0
38 -675 676 0
-676 886 0
39 -676 677 0
-677 887 0
40 -677 678 0
-678 888 0
41 -678 679 0
-679 889 0
42 -679 680 0
-680 890 0
43 -680 681 0
-681 891 0
44 -681 682 0
-682 892 0
45 -682 683 0
-683 893 0
46 -683 684 0
-684 894 0
47 -684 685 0
-685 895 0
48 -685 686 0
-686 896 0
49 -686 687 0
-687 897 0
50 -687 688 0
-688 898 0
51 -688 689 0
-689 899 0
52 -689 690 0
-690 900 0
53 -690 691 0
-691 901 0
54 -691 692 0
-692 902 0
55 -692 693 0
-693 903 0
56 -693 694 0
-694 904 0
57 -694 695 0
-695 905 0
58 -695 696 0
-696 906 0
59 -696 697 0
-697 907 0
60 -697 698 0
-698 908 0
61 -698 699 0
-699 909 0
62 -699 700 0
-700 910 0
63 -700 701 0
-701 911 0
64 -701 702 0
-702 912 0
65 -702 703 0
-703 913 0
66 -703 704 0
-704 914 0
67 -704 705 0
-705 915 0
68 -705 706 0
-706 916 0
69 -706 707 0
-707 917 0
70 -707 708 0
-708 918 0
71 -708 709 0
-709 919 0
72 -709 710 0
-710 920 0
73 -710 711 0
-711 921 0
74 -711 712 0
-712 922 0
75 -712 713 0
-713 923 0
76 -713 714 0
-714 924 0
77 -714 715 0
-715 925 0
78 -715 716 0
-716 926 0
79 -716 717 0
-717 927 0
80 -717 718 0
-718 928 0
81 -718 719 0
-719 929 0
82 -719 720 0
-720 930 0
83 -720 721 0
-721 931 0
84 -721 722 0
-722 932 0
85 -722 723 0
-723 933 0
86 -723 724 0
-724 934 0
87 -724 725 0
-725 935 0
88 -725 726 0
-726 936 0
89 -726 727 0
-727 937 0
90 -727 728 0
-728 938 0
91 -728 729 0
-729 939 0
92 -729 730 0
-730 940 0
93 -730 731 0
-731 941 0
94 -731 732 0
-732 942 0
95 -732 733 0
-733 943 0
96 -733 734 0
-734 944 0
97 -734 735 0
-735 945 0
98 -735 736 0
-736 946 0
99 -736 737 0
-737 947 0
100 -737 738 0
-738 948 0
101 -738 739 0
-739 949 0
102 -739 740 0
-740 950 0
103 -740 741 0
-741 951 0
104 -741 742 0
-742 952 0
105 -742 743 0
-743 953 0
106 -743 744 0
-744 954 0
107 -744 745 0
-745 955 0
108 -745 746 0
-746 956 0
109 -746 747 0
-747 957 0
110 -747 748 0
-748 958 0
111 -748 749 0
-749 959 0
112 -749 750 0
-750 960 0
113 -750 751 0
-751 961 0
114 -751 752 0
-752 962 0
115 -752 753 0
-753 963 0
116 -753 754 0
-754 964 0
117 -754 755 0
-755 965 0
118 -755 756 0
-756 966 0
119 -756 757 0
-757 967 0
120 -757 758 0
-758 968 0
121 -758 759 0
-759 969 0
122 -759 760 0
-760 970 0
123 -760 761 0
-761 971 0
124 -761 762 0
-762 972 0
125 -762 763 0
-763 973 0
126 -763 764 0
-764 974 0
127 -764 765 0
-765 975 0
128 -765 766 0
-766 976 0
129 -766 767 0
-767 977 0
130 -767 768 0
-768 978 0
131 -768 769 0
-769 979 0
132 -769 770 0
-770 980 0
133 -770 771 0
-771 981 0
134 -771 772 0
-772 982 0
135 -772 773 0
-773 983 0
136 -773 774 0
-774 984 0
137 -774 775 0
-775 985 0
138 -775 776 0
-776 986 0
139 -776 777 0
-777 987 0
140 -777 778 0
-778 988 0
141 -778 779 0
-779 989 0
142 -779 780 0
-780 990 0
143 -780 781 0
-781 991 0
144 -781 782 0
-782 992 0
145 -782 783 0
-783 993 0
146 -783 784 0
-784 994 0
147 -784 785 0
-785 995 0
148 -785 786 0
-786 996 0
149 -786 787 0
-787 997 0
150 -787 788 0
-788 998 0
151 -788 789 0
-789 999 0
152 -789 790 0
-790 1000 0
153 -790 791 0
-791 1001 0
154 -791 792 0
-792 1002 0
155 -792 793 0
-793 1003 0
156 -793 794 0
-794 1004 0
157 -794 795 0
-795 1005 0
158 -795 796 0
-796 1006 0
159 -796 797 0
-797 1007 0
160 -797 798 0
-798 1008 0
161 -798 799 0
-799 1009 0
162 -799 800 0
-800 1010 0
163 -800 801 0
-801 1011 0
164 -801 802 0
-802 1012 0
165 -802 803 0
-803 1013 0
166 -803 804 0
-804 1014 0
167 -804 805 0
-805 1015 0
168 -805 806 0
-806 1016 0
169 -806 807 0
-807 1017 0
170 -807 808 0
-808 1018 0
171 -808 809 0
-809 1019 0
172 -809 810 0
-810 1020 0
173 -810 811 0
-811 1021 0
174 -811 812 0
-812 1022 0
175 -812 813 0
-813 1023 0
176 -813 814 0
-814 1024 0
177 -814 815 0
-815 1025 0
178 -815 816 0
-816 1026 0
179 -816 817 0
-817 1027 0
180 -817 818 0
-818 1028 0
181 -818 819 0
-819 1029 0
182 -819 820 0
-820 1030 0
183 -820 821 0
-821 1031 0
184 -821 822 0
-822 1032 0
185 -822 823 0
-823 1033 0
186 -823 824 0
-824 1034 0
187 -824 825 0
-825 1035 0
188 -825 826 0
-826 1036 0
189 -826 827 0
-827 1037 0
190 -827 828 0
-828 1038 0
191 -828 829 0
-829 1039 0
192 -829 830 0
-830 1040 0
193 -830 831 0
-831 1041 0
194 -831 832 0
-832 1042 0
195 -832 833 0
-833 1043 0
196 -833 834 0
-834 1044 0
197 -834 835 0
-835 1045 0
198 -835 836 0
-836 1046 0
199 -836 837 0
-837 1047 0
200 -837 838 0
-838 1048 0
201 -838 839 0
-839 1049 0
202 -839 840 0
-840 1050 0
203 -840 841 0
-841 1051 0
204 -841 842 0
-842 1052 0
205 -842 843 0
-843 1053 0
206 -843 844 0
-844 1054 0
207 -844 845 0
-845 1055 0
208 -845 846 0
-846 1056 0
209 -846 847 0
-847 1057 0
210 -847 848 0
-848 1058 0
211 -848 849 0
-849 1059 0
212 -849 850 0
-850 1060 0
213 -850 0
4 851 0
-851 1061 0
5 -851 852 0
-852 1062 0
6 -852 853 0
-853 1063 0
7 -853 854 0
-854 1064 0
8 -854 855 0
-855 1065 0
9 -855 856 0
-856 1066 0
10 -856 857 0
-857 1067 0
11 -857 858 0
-858 1068 0
12 -858 859 0
-859 1069 0
13 -859 860 0
-860 1070 0
14 -860 861 0
-861 1071 0
15 -861 862 0
-862 1072 0
16 -862 863 0
-863 1073 0
17 -863 864 0
-864 1074 0
18 -864 865 0
-865 1075 0
19 -865 866 0
-866 1076 0
20 -866 867 0
-867 1077 0
21 -867 868 0
-868 1078 0
22 -868 869 0
-869 1079 0
23 -869 870 0
-870 1080 0
24 -870 871 0
-871 1081 0
25 -871 872 0
-872 1082 0
26 -872 873 0
-873 1083 0
27 -873 874 0
-874 1084 0
28 -874 875 0
-875 1085 0
29 -875 876 0
-876 1086 0
30 -876 877 0
-877 1087 0
31 -877 878 0
-878 1088 0
32 -878 879 0
-879 1089 0
33 -879 880 0
-880 1090 0
34 -880 881 0
-881 1091 0
35 -881 882 0
-882 1092 0
36 -882 883 0
-883 1093 0
37 -883 884 0
-884 1094 0
38 -884 885 0
-885 1095 0
39 -885 886 0
-886 1096 0
40 -886 887 0
-887 1097 0
41 -887 888 0
-888 1098 0
42 -888 889 0
-889 1099 0
43 -889 890 0
-890 1100 0
44 -890 891 0
-891 1101 0
45 -891 892 0
-892 1102 0
46 -892 893 0
-893 1103 0
47 -893 894 0
-894 1104 0
48 -894 895 0
-895 1105 0
49 -895 896 0
-896 1106 0
50 -896 897 0
-897 1107 0
51 -897 898 0
-898 1108 0
52 -898 899 0
-899 1109 0
53 -899 900 0
-900 1110 0
54 -900 901 0
-901 1111 0
55 -901 902 0
-902 1112 0
56 -902 903 0
-903 1113 0
57 -903 904 0
-904 1114 0
58 -904 905 0
-905 1115 0
59 -905 906 0
-906 1116 0
60 -906 907 0
-907 1117 0
61 -907 908 0
-908 1118 0
62 -908 909 0
-909 1119 0
63 -909 910 0
-910 1120 0
64 -910 911 0
-911 1121 0
65 -911 912 0
-912 1122 0
66 -912 913 0
-913 1123 0
67 -913 914 0
-914 1124 0
68 -914 915 0
-915 1125 0
69 -915 916 0
-916 1126 0
70 -916 917 0
-917 1127 0
71 -917 918 0
-918 1128 0
72 -918 919 0
-919 1129 0
73 -919 920 0
-920 1130 0
74 -920 921 0
-921 1131 0
75 -921 922 0
-922 1132 0
76 -922 923 0
-923 1133 0
77 -923 924 0
-924 1134 0
78 -924 925 0
-925 1135 0
79 -925 926 0
-926 1136 0
80 -926 927 0
-927 1137 0
81 -927 928 0
-928 1138 0
82 -928 929 0
-929 1139 0
83 -929 930 0
-930 1140 0
84 -930 931 0
-931 1141 0
85 -931 932 0
-932 1142 0
86 -932 933 0
-933 1143 0
87 -933 934 0
-934 1144 0
88 -934 935 0
-935 1145 0
89 -935 936 0
-936 1146 0
90 -936 937 0
-937 1147 0
91 -937 938 0
-938 1148 0
92 -938 939 0
-939 1149 0
93 -939 940 0
-940 1150 0
94 -940 941 0
-941 1151 0
95 -941 942 0
-942 1152 0
96 -942 943 0
-943 1153 0
97 -943 944 0
-944 1154 0
98 -944 945 0
-945 1155 0
99 -945 946 0
-946 1156 0
100 -946 947 0
-947 1157 0
101 -947 948 0
-948 1158 0
102 -948 949 0
-949 1159 0
103 -949 950 0
-950 1160 0
104 -950 951 0
-951 1161 0
105 -951 952 0
-952 1162 0
106 -952 953 0
-953 1163 0
107 -953 954 0
-954 1164 0
108 -954 955 0
-955 1165 0
109 -955 956 0
-956 1166 0
110 -956 957 0
-957 1167 0
111 -957 958 0
-958 1168 0
112 -958 959 0
-959 1169 0
113 -959 960 0
-960 1170 0
114 -960 961 0
-961 1171 0
115 -961 962 0
-962 1172 0
116 -962 963 0
-963 1173 0
117 -963 964 0
-964 1174 0
118 -964 965 0
-965 1175 0
119 -965 966 0
-966 1176 0
120 -966 967 0
-967 1177 0
121 -967 968 0
-968 1178 0
122 -968 969 0
-969 1179 0
123 -969 970 0
-970 1180 0
124 -970 971 0
-971 1181 0
125 -971 972 0
-972 1182 0
126 -972 973 0
-973 1183 0
127 -973 974 0
-974 1184 0
128 -974 975 0
-975 1185 0
129 -975 976 0
-976 1186 0
130 -976 977 0
-977 1187 0
131 -977 978 0
-978 1188 0
132 -978 979 0
-979 1189 0
133 -979 980 0
-980 1190 0
134 -980 981 0
-981 1191 0
135 -981 982 0
-982 1192 0
136 -982 983 0
-983 1193 0
137 -983 984 0
-984 1194 0
138 -984 985 0
-985 1195 0
139 -985 986 0
-986 1196 0
140 -986 987 0
-987 1197 0
141 -987 988 0
-988 1198 0
142 -988 989 0
-989 1199 0
143 -989 990 0
-990 1200 0
144 -990 991 0
-991 1201 0
145 -991 992 0
-992 1202 0
146 -992 993 0
-993 1203 0
147 -993 994 0
-994 1204 0
148 -994 995 0
-995 1205 0
149 -995 996 0
-996 1206 0
150 -996 997 0
-997 1207 0
151 -997 998 0
-998 1208 0
152 -998 999 0
-999 1209 0
153 -999 1000 0
-1000 1210 0
154 -1000 1001 0
-1001 1211 0
155 -1001 1002 0
-1002 1212 0
156 -1002 1003 0
-1003 1213 0
157 -1003 1004 0
-1004 1214 0
158 -1004 1005 0
-1005 1215 0
159 -1005 1006 0
-1006 1216 0
160 -1006 1007 0
-1007 1217 0
161 -1007 1008 0
-1008 1218 0
162 -1008 1009 0
-1009 1219 0
163 -1009 1010 0
-1010 1220 0
164 -1010 1011 0
-1011 1221 0
165 -1011 1012 0
-1012 1222 0
166 -1012 1013 0
-1013 1223 0
167 -1013 1014 0
-1014 1224 0
168 -1014 1015 0
-1015 1225 0
169 -1015 1016 0
-1016 1226 0
170 -1016 1017 0
-1017 1227 0
171 -1017 1018 0
-1018 1228 0
172 -1018 1019 0
-1019 1229 0
173 -1019 1020 0
-1020 1230 0
174 -1020 1021 0
-1021 1231 0
175 -1021 1022 0
-1022 1232 0
176 -1022 1023 0
-1023 1233 0
177 -1023 1024 0
-1024 1234 0
178 -1024 1025 0
-1025 1235 0
179 -1025 1026 0
-1026 1236 0
180 -1026 1027 0
-1027 1237 0
181 -1027 1028 0
-1028 1238 0
182 -1028 1029 0
-1029 1239 0
183 -1029 1030 0
-1030 1240 0
184 -1030 1031 0
-1031 1241 0
185 -1031 1032 0
-1032 1242 0
186 -1032 1033 0
-1033 1243 0
187 -1033 1034 0
-1034 1244 0
188 -1034 1035 0
-1035 1245 0
189 -1035 1036 0
-1036 1246 0
190 -1036 1037 0
-1037 1247 0
191 -1037 1038 0
-1038 1248 0
192 -1038 1039 0
-1039 1249 0
193 -1039 1040 0
-1040 1250 0
194 -1040 1041 0
-1041 1251 0
195 -1041 1042 0
-1042 1252 0
196 -1042 1043 0
-1043 1253 0
197 -1043 1044 0
-1044 1254 0
198 -1044 1045 0
-1045 1255 0
199 -1045 1046 0
-1046 1256 0
200 -1046 1047 0
-1047 1257 0
201 -1047 1048 0
-1048 1258 0
202 -1048 1049 0
-1049 1259 0
203 -1049 1050 0
-1050 1260 0
204 -1050 1051 0
-1051 1261 0
205 -1051 1052 0
-1052 1262 0
206 -1052 1053 0
-1053 1263 0
207 -1053 1054 0
-1054 1264 0
208 -1054 1055 0
-1055 1265 0
209 -1055 1056 0
-1056 1266 0
210 -1056 1057 0
-1057 1267 0
211 -1057 1058 0
-1058 1268 0
212 -1058 1059 0
-1059 1269 0
213 -1059 1060 0
-1060 1270 0
214 -1060 0
5 1061 0
-1061 1271 0
6 -1061 1062 0
-1062 1272 0
7 -1062 1063 0
-1063 1273 0
8 -1063 1064 0
-1064 1274 0
9 -1064 1065 0
-1065 1275 0
10 -1065 1066 0
-1066 1276 0
11 -1066 1067 0
-1067 1277 0
12 -1067 1068 0
-1068 1278 0
13 -1068 1069 0
-1069 1279 0
14 -1069 1070 0
-1070 1280 0
15 -1070 1071 0
-1071 1281 0
16 -1071 1072 0
-1072 1282 0
17 -1072 1073 0
-1073 1283 0
18 -1073 1074 0
-1074 1284 0
19 -1074 1075 0
-1075 1285 0
20 -1075 1076 0
-1076 1286 0
21 -1076 1077 0
-1077 1287 0
22 -1077 1078 0
-1078 1288 0
23 -1078 1079 0
-1079 1289 0
24 -1079 1080 0
-1080 1290 0
25 -1080 1081 0
-1081 1291 0
26 -1081 1082 0
-1082 1292 0
27 -1082 1083 0
-1083 1293 0
28 -1083 1084 0
-1084 1294 0
29 -1084 1085 0
-1085 1295 0
30 -1085 1086 0
-1086 1296 0
31 -1086 1087 0
-1087 1297 0
32 -1087 1088 0
-1088 1298 0
33 -1088 1089 0
-1089 1299 0
34 -1089 1090 0
-1090 1300 0
35 -1090 1091 0
-1091 1301 0
36 -1091 1092 0
-1092 1302 0
37 -1092 1093 0
-1093 1303 0
38 -1093 1094 0
-1094 1304 0
39 -1094 1095 0
-1095 1305 0
40 -1095 1096 0
-1096 1306 0
41 -1096 1097 0
-1097 1307 0
42 -1097 1098 0
-1098 1308 0
43 -1098 1099 0
-1099 1309 0
44 -1099 1100 0
-1100 1310 0
45 -1100 1101 0
-1101 1311 0
46 -1101 1102 0
-1102 1312 0
47 -1102 1103 0
-1103 1313 0
48 -1103 1104 0
-1104 1314 0
49 -1104 1105 0
-1105 1315 0
50 -1105 1106 0
-1106 1316 0
51 -1106 1107 0
-1107 1317 0
52 -1107 1108 0
-1108 1318 0
53 -1108 1109 0
-1109 1319 0
54 -1109 1110 0
-1110 1320 0
55 -1110 1111 0
-1111 1321 0
56 -1111 1112 0
-1112 1322 0
57 -1112 1113 0
-1113 1323 0
58 -1113 1114 0
-1114 1324 0
59 -1114 1115 0
-1115 1325 0
60 -1115 1116 0
-1116 1326 0
61 -1116 1117 0
-1117 1327 0
62 -1117 1118 0
-1118 1328 0
63 -1118 1119 0
-1119 1329 0
64 -1119 1120 0
-1120 1330 0
65 -1120 1121 0
-1121 1331 0
66 -1121 1122 0
-1122 1332 0
67 -1122 1123 0
-1123 1333 0
68 -1123 1124 0
-1124 1334 0
69 -1124 1125 0
-1125 1335 0
70 -1125 1126 0
-1126 1336 0
71 -1126 1127 0
-1127 1337 0
72 -1127 1128 0
-1128 1338 0
73 -1128 1129 0
-1129 1339 0
74 -1129 1130 0
-1130 1340 0
75 -1130 1131 0
-1131 1341 0
76 -1131 1132 0
-1132 1342 0
77 -1132 1133 0
-1133 1343 0
78 -1133 1134 0
-1134 1344 0
79 -1134 1135 0
-1135 1345 0
80 -1135 1136 0
-1136 1346 0
81 -1136 1137 0
-1137 1347 0
82 -1137 1138 0
-1138 1348 0
83 -1138 1139 0
-1139 1349 0
84 -1139 1140 0
-1140 1350 0
85 -1140 1141 0
-1141 1351 0
86 -1141 1142 0
-1142 1352 0
87 -1142 1143 0
-1143 1353 0
88 -1143 1144 0
-1144 1354 0
89 -1144 1145 0
-1145 1355 0
90 -1145 1146 0
-1146 1356 0
91 -1146 1147 0
-1147 1357 0
92 -1147 1148 0
-1148 1358 0
93 -1148 1149 0
-1149 1359 0
94 -1149 1150 0
-1150 1360 0
95 -1150 1151 0
-1151 1361 0
96 -1151 1152 0
-1152 1362 0
97 -1152 1153 0
-1153 1363 0
98 -1153 1154 0
-1154 1364 0
99 -1154 1155 0
-1155 1365 0
100 -1155 1156 0
-1156 1366 0
101 -1156 1157 0
-1157 1367 0
102 -1157 1158 0
-1158 1368 0
103 -1158 1159 0
-1159 1369 0
104 -1159 1160 0
-1160 1370 0
105 -1160 1161 0
-1161 1371 0
106 -1161 1162 0
-1162 1372 0
107 -1162 1163 0
-1163 1373 0
108 -1163 1164 0
-1164 1374 0
109 -1164 1165 0
-1165 1375 0
110 -1165 1166 0
-1166 1376 0
111 -1166 1167 0
-1167 1377 0
112 -1167 1168 0
-1168 1378 0
113 -1168 1169 0
-1169 1379 0
114 -1169 1170 0
-1170 1380 0
115 -1170 1171 0
-1171 1381 0
116 -1171 1172 0
-1172 1382 0
117 -1172 1173 0
-1173 1383 0
118 -1173 1174 0
-1174 1384 0
119 -1174 1175 0
-1175 1385 0
120 -1175 1176 0
-1176 1386 0
121 -1176 1177 0
-1177 1387 0
122 -1177 1178 0
-1178 1388 0
123 -1178 1179 0
-1179 1389 0
124 -1179 1180 0
-1180 1390 0
125 -1180 1181 0
-1181 1391 0
126 -1181 1182 0
-1182 1392 0
127 -1182 1183 0
-1183 1393 0
128 -1183 1184 0
-1184 1394 0
129 -1184 1185 0
-1185 1395 0
130 -1185 1186 0
-1186 1396 0
131 -1186 1187 0
-1187 1397 0
132 -1187 1188 0
-1188 1398 0
133 -1188 1189 0
-1189 1399 0
134 -1189 1190 0
-1190 1400 0
135 -1190 1191 0
-1191 1401 0
136 -1191 1192 0
-1192 1402 0
137 -1192 1193 0
-1193 1403 0
138 -1193 1194 0
-1194 1404 0
139 -1194 1195 0
-1195 1405 0
140 -1195 1196 0
-1196 1406 0
141 -1196 1197 0
-1197 1407 0
142 -1197 1198 0
-1198 1408 0
143 -1198 1199 0
-1199 1409 0
144 -1199 1200 0
-1200 1410 0
145 -1200 1201 0
-1201 1411 0
146 -1201 1202 0
-1202 1412 0
147 -1202 1203 0
-1203 1413 0
148 -1203 1204 0
-1204 1414 0
149 -1204 1205 0
-1205 1415 0
150 -1205 1206 0
-1206 1416 0
151 -1206 1207 0
-1207 1417 0
152 -1207 1208 0
-1208 1418 0
153 -1208 1209 0
-1209 1419 0
154 -1209 1210 0
-1210 1420 0
155 -1210 1211 0
-1211 1421 0
156 -1211 1212 0
-1212 1422 0
157 -1212 1213 0
-1213 1423 0
158 -1213 1214 0
-1214 1424 0
159 -1214 1215 0
-1215 1425 0
160 -1215 1216 0
-1216 1426 0
161 -1216 1217 0
-1217 1427 0
162 -1217 1218 0
-1218 1428 0
163 -1218 1219 0
-1219 1429 0
164 -1219 1220 0
-1220 1430 0
165 -1220 1221 0
-1221 1431 0
166 -1221 1222 0
-1222 1432 0
167 -1222 1223 0
-1223 1433 0
168 -1223 1224 0
-1224 1434 0
169 -1224 1225 0
-1225 1435 0
170 -1225 1226 0
-1226 1436 0
171 -1226 1227 0
-1227 1437 0
172 -1227 1228 0
-1228 1438 0
173 -1228 1229 0
-1229 1439 0
174 -1229 1230 0
-1230 1440 0
175 -1230 1231 0
-1231 1441 0
176 -1231 1232 0
-1232 1442 0
177 -1232 1233 0
-1233 1443 0
178 -1233 1234 0
-1234 1444 0
179 -1234 1235 0
-1235 1445 0
180 -1235 1236 0
-1236 1446 0
181 -1236 1237 0
-1237 1447 0
182 -1237 1238 0
-1238 1448 0
183 -1238 1239 0
-1239 1449 0
184 -1239 1240 0
-1240 1450 0
185 -1240 1241 0
-1241 1451 0
186 -1241 1242 0
-1242 1452 0
187 -1242 1243 0
-1243 1453 0
188 -1243 1244 0
-1244 1454 0
189 -1244 1245 0
-1245 1455 0
190 -1245 1246 0
-1246 1456 0
191 -1246 1247 0
-1247 1457 0
192 -1247 1248 0
-1248 1458 0
193 -1248 1249 0
-1249 1459 0
194 -1249 1250 0
-1250 1460 0
195 -1250 1251 0
-1251 1461 0
196 -1251 1252 0
-1252 1462 0
197 -1252 1253 0
-1253 1463 0
198 -1253 1254 0
-1254 1464 0
199 -1254 1255 0
-1255 1465 0
200 -1255 1256 0
-1256 1466 0
201 -1256 1257 0
-1257 1467 0
202 -1257 1258 0
-1258 1468 0
203 -1258 1259 0
-1259 1469 0
204 -1259 1260 0
-1260 1470 0
205 -1260 1261 0
-1261 1471 0
206 -1261 1262 0
-1262 1472 0
207 -1262 1263 0
-1263 1473 0
208 -1263 1264 0
-1264 1474 0
209 -1264 1265 0
-1265 1475 0
210 -1265 1266 0
-1266 1476 0
211 -1266 1267 0
-1267 1477 0
212 -1267 1268 0
-1268 1478 0
213 -1268 1269 0
-1269 1479 0
214 -1269 1270 0
-1270 1480 0
215 -1270 0
6 1271 0
-1271 1481 0
7 -1271 1272 0
-1272 1482 0
8 -1272 1273 0
-1273 1483 0
9 -1273 1274 0
-1274 1484 0
10 -1274 1275 0
-1275 1485 0
11 -1275 1276 0
-1276 1486 0
12 -1276 1277 0
-1277 1487 0
13 -1277 1278 0
-1278 1488 0
14 -1278 1279 0
-1279 1489 0
15 -1279 1280 0
-1280 1490 0
16 -1280 1281 0
-1281 1491 0
17 -1281 1282 0
-1282 1492 0
18 -1282 1283 0
-1283 1493 0
19 -1283 1284 0
-1284 1494 0
20 -1284 1285 0
-1285 1495 0
21 -1285 1286 0
-1286 1496 0
22 -1286 1287 0
-1287 1497 0
23 -1287 1288 0
-1288 1498 0
24 -1288 1289 0
-1289 1499 0
25 -1289 1290 0
-1290 1500 0
26 -1290 1291 0
-1291 1501 0
27 -1291 1292 0
-1292 1502 0
28 -1292 1293 0
-1293 1503 0
29 -1293 1294 0
-1294 1504 0
30 -1294 1295 0
-1295 1505 0
31 -1295 1296 0
-1296 1506 0
32 -1296 1297 0
-1297 1507 0
33 -1297 1298 0
-1298 1508 0
34 -1298 1299 0
-1299 1509 0
35 -1299 1300 0
-1300 1510 0
36 -1300 1301 0
-1301 1511 0
37 -1301 1302 0
-1302 1512 0
38 -1302 1303 0
-1303 1513 0
39 -1303 1304 0
-1304 1514 0
40 -1304 1305 0
-1305 1515 0
41 -1305 1306 0
-1306 1516 0
42 -1306 1307 0
-1307 1517 0
43 -1307 1308 0
-1308 1518 0
44 -1308 1309 0
-1309 1519 0
45 -1309 1310 0
-1310 1520 0
46 -1310 1311 0
-1311 1521 0
47 -1311 1312 0
-1312 1522 0
48 -1312 1313 0
-1313 1523 0
49 -1313 1314 0
-1314 1524 0
50 -1314 1315 0
-1315 1525 0
51 -1315 1316 0
-1316 1526 0
52 -1316 1317 0
-1317 1527 0
53 -1317 1318 0
-1318 1528 0
54 -1318 1319 0
-1319 1529 0
55 -1319 1320 0
-1320 1530 0
56 -1320 1321 0
-1321 1531 0
57 -1321 1322 0
-1322 1532 0
58 -1322 1323 0
-1323 1533 0
59 -1323 1324 0
-1324 1534 0
60 -1324 1325 0
-1325 1535 0
61 -1325 1326 0
-1326 1536 0
62 -1326 1327 0
-1327 1537 0
63 -1327 1328 0
-1328 1538 0
64 -1328 1329 0
-1329 1539 0
65 -1329 1330 0
-1330 1540 0
66 -1330 1331 0
-1331 1541 0
67 -1331 1332 0
-1332 1542 0
68 -1332 1333 0
-1333 1543 0
69 -1333 1334 0
-1334 1544 0
70 -1334 1335 0
-1335 1545 0
71 -1335 1336 0
-1336 1546 0
72 -1336 1337 0
-1337 1547 0
73 -1337 1338 0
-1338 1548 0
74 -1338 1339 0
-1339 1549 0
75 -1339 1340 0
-1340 1550 0
76 -1340 1341 0
-1341 1551 0
77 -1341 1342 0
-1342 1552 0
78 -1342 1343 0
-1343 1553 0
79 -1343 1344 0
-1344 1554 0
80 -1344 1345 0
-1345 1555 0
81 -1345 1346 0
-1346 1556 0
82 -1346 1347 0
-1347 1557 0
83 -1347 1348 0
-1348 1558 0
84 -1348 1349 0
-1349 1559 0
85 -1349 1350 0
-1350 1560 0
86 -1350 1351 0
-1351 1561 0
87 -1351 1352 0
-1352 1562 0
88 -1352 1353 0
-1353 1563 0
89 -1353 1354 0
-1354 1564 0
90 -1354 1355 0
-1355 1565 0
91 -1355 1356 0
-1356 1566 0
92 -1356 1357 0
-1357 1567 0
93 -1357 1358 0
-1358 1568 0
94 -1358 1359 0
-1359 1569 0
95 -1359 1360 0
-1360 1570 0
96 -1360 1361 0
-1361 1571 0
97 -1361 1362 0
-1362 1572 0
98 -1362 1363 0
-1363 1573 0
99 -1363 1364 0
-1364 1574 0
100 -1364 1365 0
-1365 1575 0
101 -1365 1366 0
-1366 1576 0
102 -1366 1367 0
-1367 1577 0
103 -1367 1368 0
-1368 1578 0
104 -1368 1369 0
-1369 1579 0
105 -1369 1370 0
-1370 1580 0
106 -1370 1371 0
-1371 1581 0
107 -1371 1372 0
-1372 1582 0
108 -1372 1373 0
-1373 1583 0
109 -1373 1374 0
-1374 1584 0
110 -1374 1375 0
-1375 1585 0
111 -1375 1376 0
-1376 1586 0
112 -1376 1377 0
-1377 1587 0
113 -1377 1378 0
-1378 1588 0
114 -1378 1379 0
-1379 1589 0
115 -1379 1380 0
-1380 1590 0
116 -1380 1381 0
-1381 1591 0
117 -1381 1382 0
-1382 1592 0
118 -1382 1383 0
-1383 1593 0
119 -1383 1384 0
-1384 1594 0
120 -1384 1385 0
-1385 1595 0
121 -1385 1386 0
-1386 1596 0
122 -1386 1387 0
-1387 1597 0
123 -1387 1388 0
-1388 1598 0
124 -1388 1389 0
-1389 1599 0
125 -1389 1390 0
-1390 1600 0
126 -1390 1391 0
-1391 1601 0
127 -1391 1392 0
-1392 1602 0
128 -1392 1393 0
-1393 1603 0
129 -1393 1394 0
-1394 1604 0
130 -1394 1395 0
-1395 1605 0
131 -1395 1396 0
-1396 1606 0
132 -1396 1397 0
-1397 1607 0
133 -1397 1398 0
-1398 1608 0
134 -1398 1399 0
-1399 1609 0
135 -1399 1400 0
-1400 1610 0
136 -1400 1401 0
-1401 1611 0
137 -1401 1402 0
-1402 1612 0
138 -1402 1403 0
-1403 1613 0
139 -1403 1404 0
-1404 1614 0
140 -1404 1405 0
-1405 1615 0
141 -1405 1406 0
-1406 1616 0
142 -1406 1407 0
-1407 1617 0
143 -1407 1408 0
-1408 1618 0
144 -1408 1409 0
-1409 1619 0
145 -1409 1410 0
-1410 1620 0
146 -1410 1411 0
-1411 1621 0
147 -1411 1412 0
-1412 1622 0
148 -1412 1413 0
-1413 1623 0
149 -1413 1414 0
-1414 1624 0
150 -1414 1415 0
-1415 1625 0
151 -1415 1416 0
-1416 1626 0
152 -1416 1417 0
-1417 1627 0
153 -1417 1418 0
-1418 1628 0
154 -1418 1419 0
-1419 1629 0
155 -1419 1420 0
-1420 1630 0
156 -1420 1421 0
-1421 1631 0
157 -1421 1422 0
-1422 1632 0
158 -1422 1423 0
-1423 1633 0
159 -1423 1424 0
-1424 1634 0
160 -1424 1425 0
-1425 1635 0
161 -1425 1426 0
-1426 1636 0
162 -1426 1427 0
-1427 1637 0
163 -1427 1428 0
-1428 1638 0
164 -1428 1429 0
-1429 1639 0
165 -1429 1430 0
-1430 1640 0
166 -1430 1431 0
-1431 1641 0
167 -1431 1432 0
-1432 1642 0
168 -1432 1433 0
-1433 1643 0
169 -1433 1434 0
-1434 1644 0
170 -1434 1435 0
-1435 1645 0
171 -1435 1436 0
-1436 1646 0
172 -1436 1437 0
-1437 1647 0
173 -1437 1438 0
-1438 1648 0
174 -1438 1439 0
-1439 1649 0
175 -1439 1440 0
-1440 1650 0
176 -1440 1441 0
-1441 1651 0
177 -1441 1442 0
-1442 1652 0
178 -1442 1443 0
-1443 1653 0
179 -1443 1444 0
-1444 1654 0
180 -1444 1445 0
-1445 1655 0
181 -1445 1446 0
-1446 1656 0
182 -1446 1447 0
-1447 1657 0
183 -1447 1448 0
-1448 1658 0
184 -1448 1449 0
-1449 1659 0
185 -1449 1450 0
-1450 1660 0
186 -1450 1451 0
-1451 1661 0
187 -1451 1452 0
-1452 1662 0
188 -1452 1453 0
-1453 1663 0
189 -1453 1454 0
-1454 1664 0
190 -1454 1455 0
-1455 1665 0
191 -1455 1456 0
-1456 1666 0
192 -1456 1457 0
-1457 1667 0
193 -1457 1458 0
-1458 1668 0
194 -1458 1459 0
-1459 1669 0
195 -1459 1460 0
-1460 1670 0
196 -1460 1461 0
-1461 1671 0
197 -1461 1462 0
-1462 1672 0
198 -1462 1463 0
-1463 1673 0
199 -1463 1464 0
-1464 1674 0
200 -1464 1465 0
-1465 1675 0
201 -1465 1466 0
-1466 1676 0
202 -1466 1467 0
-1467 1677 0
203 -1467 1468 0
-1468 1678 0
204 -1468 1469 0
-1469 1679 0
205 -1469 1470 0
-1470 1680 0
206 -1470 1471 0
-1471 1681 0
207 -1471 1472 0
-1472 1682 0
208 -1472 1473 0
-1473 1683 0
209 -1473 1474 0
-1474 1684 0
210 -1474 1475 0
-1475 1685 0
211 -1475 1476 0
-1476 1686 0
212 -1476 1477 0
-1477 1687 0
213 -1477 1478 0
-1478 1688 0
214 -1478 1479 0
-1479 1689 0
215 -1479 1480 0
-1480 1690 0
216 -1480 0
7 1481 0
-1481 1691 0
8 -1481 1482 0
-1482 1692 0
9 -1482 1483 0
-1483 1693 0
10 -1483 1484 0
-1484 1694 0
11 -1484 1485 0
-1485 1695 0
12 -1485 1486 0
-1486 1696 0
13 -1486 1487 0
-1487 1697 0
14 -1487 1488 0
-1488 1698 0
15 -1488 1489 0
-1489 1699 0
16 -1489 1490 0
-1490 1700 0
17 -1490 1491 0
-1491 1701 0
18 -1491 1492 0
-1492 1702 0
19 -1492 1493 0
-1493 1703 0
20 -1493 1494 0
-1494 1704 0
21 -1494 1495 0
-1495 1705 0
22 -1495 1496 0
-1496 1706 0
23 -1496 1497 0
-1497 1707 0
24 -1497 1498 0
-1498 1708 0
25 -1498 1499 0
-1499 1709 0
26 -1499 1500 0
-1500 1710 0
27 -1500 1501 0
-1501 1711 0
28 -1501 1502 0
-1502 1712 0
29 -1502 1503 0
-1503 1713 0
30 -1503 1504 0
-1504 1714 0
31 -1504 1505 0
-1505 1715 0
32 -1505 1506 0
-1506 1716 0
33 -1506 1507 0
-1507 1717 0
34 -1507 1508 0
-1508 1718 0
35 -1508 1509 0
-1509 1719 0
36 -1509 1510 0
-1510 1720 0
37 -1510 1511 0
-1511 1721 0
38 -1511 1512 0
-1512 1722 0
39 -1512 1513 0
-1513 1723 0
40 -1513 1514 0
-1514 1724 0
41 -1514 1515 0
-1515 1725 0
42 -1515 1516 0
-1516 1726 0
43 -1516 1517 0
-1517 1727 0
44 -1517 1518 0
-1518 1728 0
45 -1518 1519 0
-1519 1729 0
46 -1519 1520 0
-1520 1730 0
47 -1520 1521 0
-1521 1731 0
48 -1521 1522 0
-1522 1732 0
49 -1522 1523 0
-1523 1733 0
50 -1523 1524 0
-1524 1734 0
51 -1524 1525 0
-1525 1735 0
52 -1525 1526 0
-1526 1736 0
53 -1526 1527 0
-1527 1737 0
54 -1527 1528 0
-1528 1738 0
55 -1528 1529 0
-1529 1739 0
56 -1529 1530 0
-1530 1740 0
57 -1530 1531 0
-1531 1741 0
58 -1531 1532 0
-1532 1742 0
59 -1532 1533 0
-1533 1743 0
60 -1533 1534 0
-1534 1744 0
61 -1534 1535 0
-1535 1745 0
62 -1535 1536 0
-1536 1746 0
63 -1536 1537 0
-1537 1747 0
64 -1537 1538 0
-1538 1748 0
65 -1538 1539 0
-1539 1749 0
66 -1539 1540 0
-1540 1750 0
67 -1540 1541 0
-1541 1751 0
68 -1541 1542 0
-1542 1752 0
69 -1542 1543 0
-1543 1753 0
70 -1543 1544 0
-1544 1754 0
71 -1544 1545 0
-1545 1755 0
72 -1545 1546 0
-1546 1756 0
73 -1546 1547 0
-1547 1757 0
74 -1547 1548 0
-1548 1758 0
75 -1548 1549 0
-1549 1759 0
76 -1549 1550 0
-1550 1760 0
77 -1550 1551 0
-1551 1761 0
78 -1551 1552 0
-1552 1762 0
79 -1552 1553 0
-1553 1763 0
80 -1553 1554 0
-1554 1764 0
81 -1554 1555 0
-1555 1765 0
82 -1555 1556 0
-1556 1766 0
83 -1556 1557 0
-1557 1767 0
84 -1557 1558 0
-1558 1768 0
85 -1558 1559 0
-1559 1769 0
86 -1559 1560 0
-1560 1770 0
87 -1560 1561 0
-1561 1771 0
88 -1561 1562 0
-1562 1772 0
89 -1562 1563 0
-1563 1773 0
90 -1563 1564 0
-1564 1774 0
91 -1564 1565 0
-1565 1775 0
92 -1565 1566 0
-1566 1776 0
93 -1566 1567 0
-1567 1777 0
94 -1567 1568 0
-1568 1778 0
95 -1568 1569 0
-1569 1779 0
96 -1569 1570 0
-1570 1780 0
97 -1570 1571 0
-1571 1781 0
98 -1571 1572 0
-1572 1782 0
99 -1572 1573 0
-1573 1783 0
100 -1573 1574 0
-1574 1784 0
101 -1574 1575 0
-1575 1785 0
102 -1575 1576 0
-1576 1786 0
103 -1576 1577 0
-1577 1787 0
104 -1577 1578 0
-1578 1788 0
105 -1578 1579 0
-1579 1789 0
106 -1579 1580 0
-1580 1790 0
107 -1580 1581 0
-1581 1791 0
108 -1581 1582 0
-1582 1792 0
109 -1582 1583 0
-1583 1793 0
110 -1583 1584 0
-1584 1794 0
111 -1584 1585 0
-1585 1795 0
112 -1585 1586 0
-1586 1796 0
113 -1586 1587 0
-1587 1797 0
114 -1587 1588 0
-1588 1798 0
115 -1588 1589 0
-1589 1799 0
116 -1589 1590 0
-1590 1800 0
117 -1590 1591 0
-1591 1801 0
118 -1591 1592 0
-1592 1802 0
119 -1592 1593 0
-1593 1803 0
120 -1593 1594 0
-1594 1804 0
121 -1594 1595 0
-1595 1805 0
122 -1595 1596 0
-1596 1806 0
123 -1596 1597 0
-1597 1807 0
124 -1597 1598 0
-1598 1808 0
125 -1598 1599 0
-1599 1809 0
126 -1599 1600 0
-1600 1810 0
127 -1600 1601 0
-1601 1811 0
128 -1601 1602 0
-1602 1812 0
129 -1602 1603 0
-1603 1813 0
130 -1603 1604 0
-1604 1814 0
131 -1604 1605 0
-1605 1815 0
132 -1605 1606 0
-1606 1816 0
133 -1606 1607 0
-1607 1817 0
134 -1607 1608 0
-1608 1818 0
135 -1608 1609 0
-1609 1819 0
136 -1609 1610 0
-1610 1820 0
137 -1610 1611 0
-1611 1821 0
138 -1611 1612 0
-1612 1822 0
139 -1612 1613 0
-1613 1823 0
140 -1613 1614 0
-1614 1824 0
141 -1614 1615 0
-1615 1825 0
142 -1615 1616 0
-1616 1826 0
143 -1616 1617 0
-1617 1827 0
144 -1617 1618 0
-1618 1828 0
145 -1618 1619 0
-1619 1829 0
146 -1619 1620 0
-1620 1830 0
147 -1620 1621 0
-1621 1831 0
148 -1621 1622 0
-1622 1832 0
149 -1622 1623 0
-1623 1833 0
150 -1623 1624 0
-1624 1834 0
151 -1624 1625 0
-1625 1835 0
152 -1625 1626 0
-1626 1836 0
153 -1626 1627 0
-1627 1837 0
154 -1627 1628 0
-1628 1838 0
155 -1628 1629 0
-1629 1839 0
156 -1629 1630 0
-1630 1840 0
157 -1630 1631 0
-1631 1841 0
158 -1631 1632 0
-1632 1842 0
159 -1632 1633 0
-1633 1843 0
160 -1633 1634 0
-1634 1844 0
161 -1634 1635 0
-1635 1845 0
162 -1635 1636 0
-1636 1846 0
163 -1636 1637 0
-1637 1847 0
164 -1637 1638 0
-1638 1848 0
165 -1638 1639 0
-1639 1849 0
166 -1639 1640 0
-1640 1850 0
167 -1640 1641 0
-1641 1851 0
168 -1641 1642 0
-1642 1852 0
169 -1642 1643 0
-1643 1853 0
170 -1643 1644 0
-1644 1854 0
171 -1644 1645 0
-1645 1855 0
172 -1645 1646 0
-1646 1856 0
173 -1646 1647 0
-1647 1857 0
174 -1647 1648 0
-1648 1858 0
175 -1648 1649 0
-1649 1859 0
176 -1649 1650 0
-1650 1860 0
177 -1650 1651 0
-1651 1861 0
178 -1651 1652 0
-1652 1862 0
179 -1652 1653 0
-1653 1863 0
180 -1653 1654 0
-1654 1864 0
181 -1654 1655 0
-1655 1865 0
182 -1655 1656 0
-1656 1866 0
183 -1656 1657 0
-1657 1867 0
184 -1657 1658 0
-1658 1868 0
185 -1658 1659 0
-1659 1869 0
186 -1659 1660 0
-1660 1870 0
187 -1660 1661 0
-1661 1871 0
188 -1661 1662 0
-1662 1872 0
189 -1662 1663 0
-1663 1873 0
190 -1663 1664 0
-1664 1874 0
191 -1664 1665 0
-1665 1875 0
192 -1665 1666 0
-1666 1876 0
193 -1666 1667 0
-1667 1877 0
194 -1667 1668 0
-1668 1878 0
195 -1668 1669 0
-1669 1879 0
196 -1669 1670 0
-1670 1880 0
197 -1670 1671 0
-1671 1881 0
198 -1671 1672 0
-1672 1882 0
199 -1672 1673 0
-1673 1883 0
200 -1673 1674 0
-1674 1884 0
201 -1674 1675 0
-1675 1885 0
202 -1675 1676 0
-1676 1886 0
203 -1676 1677 0
-1677 1887 0
204 -1677 1678 0
-1678 1888 0
205 -1678 1679 0
-1679 1889 0
206 -1679 1680 0
-1680 1890 0
207 -1680 1681 0
-1681 1891 0
208 -1681 1682 0
-1682 1892 0
209 -1682 1683 0
-1683 1893 0
210 -1683 1684 0
-1684 1894 0
211 -1684 1685 0
-1685 1895 0
212 -1685 1686 0
-1686 1896 0
213 -1686 1687 0
-1687 1897 0
214 -1687 1688 0
-1688 1898 0
215 -1688 1689 0
-1689 1899 0
216 -1689 1690 0
-1690 1900 0
217 -1690 0
8 1691 0
-1691 1901 0
9 -1691 1692 0
-1692 1902 0
10 -1692 1693 0
-1693 1903 0
11 -1693 1694 0
-1694 1904 0
12 -1694 1695 0
-1695 1905 0
13 -1695 1696 0
-1696 1906 0
14 -1696 1697 0
-1697 1907 0
15 -1697 1698 0
-1698 1908 0
16 -1698 1699 0
-1699 1909 0
17 -1699 1700 0
-1700 1910 0
18 -1700 1701 0
-1701 1911 0
19 -1701 1702 0
-1702 1912 0
20 -1702 1703 0
-1703 1913 0
21 -1703 1704 0
-1704 1914 0
22 -1704 1705 0
-1705 1915 0
23 -1705 1706 0
-1706 1916 0
24 -1706 1707 0
-1707 1917 0
25 -1707 1708 0
-1708 1918 0
26 -1708 1709 0
-1709 1919 0
27 -1709 1710 0
-1710 1920 0
28 -1710 1711 0
-1711 1921 0
29 -1711 1712 0
-1712 1922 0
30 -1712 1713 0
-1713 1923 0
31 -1713 1714 0
-1714 1924 0
32 -1714 1715 0
-1715 1925 0
33 -1715 1716 0
-1716 1926 0
34 -1716 1717 0
-1717 1927 0
35 -1717 1718 0
-1718 1928 0
36 -1718 1719 0
-1719 1929 0
37 -1719 1720 0
-1720 1930 0
38 -1720 1721 0
-1721 1931 0
39 -1721 1722 0
-1722 1932 0
40 -1722 1723 0
-1723 1933 0
41 -1723 1724 0
-1724 1934 0
42 -1724 1725 0
-1725 1935 0
43 -1725 1726 0
-1726 1936 0
44 -1726 1727 0
-1727 1937 0
45 -1727 1728 0
-1728 1938 0
46 -1728 1729 0
-1729 1939 0
47 -1729 1730 0
-1730 1940 0
48 -1730 1731 0
-1731 1941 0
49 -1731 1732 0
-1732 1942 0
50 -1732 1733 0
-1733 1943 0
51 -1733 1734 0
-1734 1944 0
52 -1734 1735 0
-1735 1945 0
53 -1735 1736 0
-1736 1946 0
54 -1736 1737 0
-1737 1947 0
55 -1737 1738 0
-1738 1948 0
56 -1738 1739 0
-1739 1949 0
57 -1739 1740 0
-1740 1950 0
58 -1740 1741 0
-1741 1951 0
59 -1741 1742 0
-1742 1952 0
60 -1742 1743 0
-1743 1953 0
61 -1743 1744 0
-1744 1954 0
62 -1744 1745 0
-1745 1955 0
63 -1745 1746 0
-1746 1956 0
64 -1746 1747 0
-1747 1957 0
65 -1747 1748 0
-1748 1958 0
66 -1748 1749 0
-1749 1959 0
67 -1749 1750 0
-1750 1960 0
68 -1750 1751 0
-1751 1961 0
69 -1751 1752 0
-1752 1962 0
70 -1752 1753 0
-1753 1963 0
71 -1753 1754 0
-1754 1964 0
72 -1754 1755 0
-1755 1965 0
73 -1755 1756 0
-1756 1966 0
74 -1756 1757 0
-1757 1967 0
75 -1757 1758 0
-1758 1968 0
76 -1758 1759 0
-1759 1969 0
77 -1759 1760 0
-1760 1970 0
78 -1760 1761 0
-1761 1971 0
79 -1761 1762 0
-1762 1972 0
80 -1762 1763 0
-1763 1973 0
81 -1763 1764 0
-1764 1974 0
82 -1764 1765 0
-1765 1975 0
83 -1765 1766 0
-1766 1976 0
84 -1766 1767 0
-1767 1977 0
85 -1767 1768 0
-1768 1978 0
86 -1768 1769 0
-1769 1979 0
87 -1769 1770 0
-1770 1980 0
88 -1770 1771 0
-1771 1981 0
89 -1771 1772 0
-1772 1982 0
90 -1772 1773 0
-1773 1983 0
91 -1773 1774 0
-1774 1984 0
92 -1774 1775 0
-1775 1985 0
93 -1775 1776 0
-1776 1986 0
94 -1776 1777 0
-1777 1987 0
95 -1777 1778 0
-1778 1988 0
96 -1778 1779 0
-1779 1989 0
97 -1779 1780 0
-1780 1990 0
98 -1780 1781 0
-1781 1991 0
99 -1781 1782 0
-1782 1992 0
100 -1782 1783 0
-1783 1993 0
101 -1783 1784 0
-1784 1994 0
102 -1784 1785 0
-1785 1995 0
103 -1785 1786 0
-1786 1996 0
104 -1786 1787 0
-1787 1997 0
105 -1787 1788 0
-1788 1998 0
106 -1788 1789 0
-1789 1999 0
107 -1789 1790 0
-1790 2000 0
108 -1790 1791 0
-1791 2001 0
109 -1791 1792 0
-1792 2002 0
110 -1792 1793 0
-1793 2003 0
111 -1793 1794 0
-1794 2004 0
112 -1794 1795 0
-1795 2005 0
113 -1795 1796 0
-1796 2006 0
114 -1796 1797 0
-1797 2007 0
115 -1797 1798 0
-1798 2008 0
116 -1798 1799 0
-1799 2009 0
117 -1799 1800 0
-1800 2010 0
118 -1800 1801 0
-1801 2011 0
119 -1801 1802 0
-1802 2012 0
120 -1802 1803 0
-1803 2013 0
121 -1803 1804 0
-1804 2014 0
122 -1804 1805 0
-1805 2015 0
123 -1805 1806 0
-1806 2016 0
124 -1806 1807 0
-1807 2017 0
125 -1807 1808 0
-1808 2018 0
126 -1808 1809 0
-1809 2019 0
127 -1809 1810 0
-1810 2020 0
128 -1810 1811 0
-1811 2021 0
129 -1811 1812 0
-1812 2022 0
130 -1812 1813 0
-1813 2023 0
131 -1813 1814 0
-1814 2024 0
132 -1814 1815 0
-1815 2025 0
133 -1815 1816 0
-1816 2026 0
134 -1816 1817 0
-1817 2027 0
135 -1817 1818 0
-1818 2028 0
136 -1818 1819 0
-1819 2029 0
137 -1819 1820 0
-1820 2030 0
138 -1820 1821 0
-1821 2031 0
139 -1821 1822 0
-1822 2032 0
140 -1822 1823 0
-1823 2033 0
141 -1823 1824 0
-1824 2034 0
142 -1824 1825 0
-1825 2035 0
143 -1825 1826 0
-1826 2036 0
144 -1826 1827 0
-1827 2037 0
145 -1827 1828 0
-1828 2038 0
146 -1828 1829 0
-1829 2039 0
147 -1829 1830 0
-1830 2040 0
148 -1830 1831 0
-1831 2041 0
149 -1831 1832 0
-1832 2042 0
150 -1832 1833 0
-1833 2043 0
151 -1833 1834 0
-1834 2044 0
152 -1834 1835 0
-1835 2045 0
153 -1835 1836 0
-1836 2046 0
154 -1836 1837 0
-1837 2047 0
155 -1837 1838 0
-1838 2048 0
156 -1838 1839 0
-1839 2049 0
157 -1839 1840 0
-1840 2050 0
158 -1840 1841 0
-1841 2051 0
159 -1841 1842 0
-1842 2052 0
160 -1842 1843 0
-1843 2053 0
161 -1843 1844 0
-1844 2054 0
162 -1844 1845 0
-1845 2055 0
163 -1845 1846 0
-1846 2056 0
164 -1846 1847 0
-1847 2057 0
165 -1847 1848 0
-1848 2058 0
166 -1848 1849 0
-1849 2059 0
167 -1849 1850 0
-1850 2060 0
168 -1850 1851 0
-1851 2061 0
169 -1851 1852 0
-1852 2062 0
170 -1852 1853 0
-1853 2063 0
171 -1853 1854 0
-1854 2064 0
172 -1854 1855 0
-1855 2065 0
173 -1855 1856 0
-1856 2066 0
174 -1856 1857 0
-1857 2067 0
175 -1857 1858 0
-1858 2068 0
176 -1858 1859 0
-1859 2069 0
177 -1859 1860 0
-1860 2070 0
178 -1860 1861 0
-1861 2071 0
179 -1861 1862 0
-1862 2072 0
180 -1862 1863 0
-1863 2073 0
181 -1863 1864 0
-1864 2074 0
182 -1864 1865 0
-1865 2075 0
183 -1865 1866 0
-1866 2076 0
184 -1866 1867 0
-1867 2077 0
185 -1867 1868 0
-1868 2078 0
186 -1868 1869 0
-1869 2079 0
187 -1869 1870 0
-1870 2080 0
188 -1870 1871 0
-1871 2081 0
189 -1871 1872 0
-1872 2082 0
190 -1872 1873 0
-1873 2083 0
191 -1873 1874 0
-1874 2084 0
192 -1874 1875 0
-1875 2085 0
193 -1875 1876 0
-1876 2086 0
194 -1876 1877 0
-1877 2087 0
195 -1877 1878 0
-1878 2088 0
196 -1878 1879 0
-1879 2089 0
197 -1879 1880 0
-1880 2090 0
198 -1880 1881 0
-1881 2091 0
199 -1881 1882 0
-1882 2092 0
200 -1882 1883 0
-1883 2093 0
201 -1883 1884 0
-1884 2094 0
202 -1884 1885 0
-1885 2095 0
203 -1885 1886 0
-1886 2096 0
204 -1886 1887 0
-1887 2097 0
205 -1887 1888 0
-1888 2098 0
206 -1888 1889 0
-1889 2099 0
207 -1889 1890 0
-1890 2100 0
208 -1890 1891 0
-1891 2101 0
209 -1891 1892 0
-1892 2102 0
210 -1892 1893 0
-1893 2103 0
211 -1893 1894 0
-1894 2104 0
212 -1894 1895 0
-1895 2105 0
213 -1895 1896 0
-1896 2106 0
214 -1896 1897 0
-1897 2107 0
215 -1897 1898 0
-1898 2108 0
216 -1898 1899 0
-1899 2109 0
217 -1899 1900 0
-1900 2110 0
218 -1900 0
9 1901 0
-1901 2111 0
10 -1901 1902 0
-1902 2112 0
11 -1902 1903 0
-1903 2113 0
12 -1903 1904 0
-1904 2114 0
13 -1904 1905 0
-1905 2115 0
14 -1905 1906 0
-1906 2116 0
15 -1906 1907 0
-1907 2117 0
16 -1907 1908 0
-1908 2118 0
17 -1908 1909 0
-1909 2119 0
18 -1909 1910 0
-1910 2120 0
19 -1910 1911 0
-1911 2121 0
20 -1911 1912 0
-1912 2122 0
21 -1912 1913 0
-1913 2123 0
22 -1913 1914 0
-1914 2124 0
23 -1914 1915 0
-1915 2125 0
24 -1915 1916 0
-1916 2126 0
25 -1916 1917 0
-1917 2127 0
26 -1917 1918 0
-1918 2128 0
27 -1918 1919 0
-1919 2129 0
28 -1919 1920 0
-1920 2130 0
29 -1920 1921 0
-1921 2131 0
30 -1921 1922 0
-1922 2132 0
31 -1922 1923 0
-1923 2133 0
32 -1923 1924 0
-1924 2134 0
33 -1924 1925 0
-1925 2135 0
34 -1925 1926 0
-1926 2136 0
35 -1926 1927 0
-1927 2137 0
36 -1927 1928 0
-1928 2138 0
37 -1928 1929 0
-1929 2139 0
38 -1929 1930 0
-1930 2140 0
39 -1930 1931 0
-1931 2141 0
40 -1931 1932 0
-1932 2142 0
41 -1932 1933 0
-1933 2143 0
42 -1933 1934 0
-1934 2144 0
43 -1934 1935 0
-1935 2145 0
44 -1935 1936 0
-1936 2146 0
45 -1936 1937 0
-1937 2147 0
46 -1937 1938 0
-1938 2148 0
47 -1938 1939 0
-1939 2149 0
48 -1939 1940 0
-1940 2150 0
49 -1940 1941 0
-1941 2151 0
50 -1941 1942 0
-1942 2152 0
51 -1942 1943 0
-1943 2153 0
52 -1943 1944 0
-1944 2154 0
53 -1944 1945 0
-1945 2155 0
54 -1945 1946 0
-1946 2156 0
55 -1946 1947 0
-1947 2157 0
56 -1947 1948 0
-1948 2158 0
57 -1948 1949 0
-1949 2159 0
58 -1949 1950 0
-1950 2160 0
59 -1950 1951 0
-1951 2161 0
60 -1951 1952 0
-1952 2162 0
61 -1952 1953 0
-1953 2163 0
62 -1953 1954 0
-1954 2164 0
63 -1954 1955 0
-1955 2165 0
64 -1955 1956 0
-1956 2166 0
65 -1956 1957 0
-1957 2167 0
66 -1957 1958 0
-1958 2168 0
67 -1958 1959 0
-1959 2169 0
68 -1959 1960 0
-1960 2170 0
69 -1960 1961 0
-1961 2171 0
70 -1961 1962 0
-1962 2172 0
71 -1962 1963 0
-1963 2173 0
72 -1963 1964 0
-1964 2174 0
73 -1964 1965 0
-1965 2175 0
74 -1965 1966 0
-1966 2176 0
75 -1966 1967 0
-1967 2177 0
76 -1967 1968 0
-1968 2178 0
77 -1968 1969 0
-1969 2179 0
78 -1969 1970 0
-1970 2180 0
79 -1970 1971 0
-1971 2181 0
80 -1971 1972 0
-1972 2182 0
81 -1972 1973 0
-1973 2183 0
82 -1973 1974 0
-1974 2184 0
83 -1974 1975 0
-1975 2185 0
84 -1975 1976 0
-1976 2186 0
85 -1976 1977 0
-1977 2187 0
86 -1977 1978 0
-1978 2188 0
87 -1978 1979 0
-1979 2189 0
88 -1979 1980 0
-1980 2190 0
89 -1980 1981 0
-1981 2191 0
90 -1981 1982 0
-1982 2192 0
91 -1982 1983 0
-1983 2193 0
92 -1983 1984 0
-1984 2194 0
93 -1984 1985 0
-1985 2195 0
94 -1985 1986 0
-1986 2196 0
95 -1986 1987 0
-1987 2197 0
96 -1987 1988 0
-1988 2198 0
97 -1988 1989 0
-1989 2199 0
98 -1989 1990 0
-1990 2200 0
99 -1990 1991 0
-1991 2201 0
100 -1991 1992 0
-1992 2202 0
101 -1992 1993 0
-1993 2203 0
102 -1993 1994 0
-1994 2204 0
103 -1994 1995 0
-1995 2205 0
104 -1995 1996 0
-1996 2206 0
105 -1996 1997 0
-1997 2207 0
106 -1997 1998 0
-1998 2208 0
107 -1998 1999 0
-1999 2209 0
108 -1999 2000 0
-2000 2210 0
109 -2000 2001 0
-2001 2211 0
110 -2001 2002 0
-2002 2212 0
111 -2002 2003 0
-2003 2213 0
112 -2003 2004 0
-2004 2214 0
113 -2004 2005 0
-2005 2215 0
114 -2005 2006 0
-2006 2216 0
115 -2006 2007 0
-2007 2217 0
116 -2007 2008 0
-2008 2218 0
117 -2008 2009 0
-2009 2219 0
118 -2009 2010 0
-2010 2220 0
119 -2010 2011 0
-2011 2221 0
120 -2011 2012 0
-2012 2222 0
121 -2012 2013 0
-2013 2223 0
122 -2013 2014 0
-2014 2224 0
123 -2014 2015 0
-2015 2225 0
124 -2015 2016 0
-2016 2226 0
125 -2016 2017 0
-2017 2227 0
126 -2017 2018 0
-2018 2228 0
127 -2018 2019 0
-2019 2229 0
128 -2019 2020 0
-2020 2230 0
129 -2020 2021 0
-2021 2231 0
130 -2021 2022 0
-2022 2232 0
131 -2022 2023 0
-2023 2233 0
132 -2023 2024 0
-2024 2234 0
133 -2024 2025 0
-2025 2235 0
134 -2025 2026 0
-2026 2236 0
135 -2026 2027 0
-2027 2237 0
136 -2027 2028 0
-2028 2238 0
137 -2028 2029 0
-2029 2239 0
138 -2029 2030 0
-2030 2240 0
139 -2030 2031 0
-2031 2241 0
140 -2031 2032 0
-2032 2242 0
141 -2032 2033 0
-2033 2243 0
142 -2033 2034 0
-2034 2244 0
143 -2034 2035 0
-2035 2245 0
144 -2035 2036 0
-2036 2246 0
145 -2036 2037 0
-2037 2247 0
146 -2037 2038 0
-2038 2248 0
147 -2038 2039 0
-2039 2249 0
148 -2039 2040 0
-2040 2250 0
149 -2040 2041 0
-2041 2251 0
150 -2041 2042 0
-2042 2252 0
151 -2042 2043 0
-2043 2253 0
152 -2043 2044 0
-2044 2254 0
153 -2044 2045 0
-2045 2255 0
154 -2045 2046 0
-2046 2256 0
155 -2046 2047 0
-2047 2257 0
156 -2047 2048 0
-2048 2258 0
157 -2048 2049 0
-2049 2259 0
158 -2049 2050 0
-2050 2260 0
159 -2050 2051 0
-2051 2261 0
160 -2051 2052 0
-2052 2262 0
161 -2052 2053 0
-2053 2263 0
162 -2053 2054 0
-2054 2264 0
163 -2054 2055 0
-2055 2265 0
164 -2055 2056 0
-2056 2266 0
165 -2056 2057 0
-2057 2267 0
166 -2057 2058 0
-2058 2268 0
167 -2058 2059 0
-2059 2269 0
168 -2059 2060 0
-2060 2270 0
169 -2060 2061 0
-2061 2271 0
170 -2061 2062 0
-2062 2272 0
171 -2062 2063 0
-2063 2273 0
172 -2063 2064 0
-2064 2274 0
173 -2064 2065 0
-2065 2275 0
174 -2065 2066 0
-2066 2276 0
175 -2066 2067 0
-2067 2277 0
176 -2067 2068 0
-2068 2278 0
177 -2068 2069 0
-2069 2279 0
178 -2069 2070 0
-2070 2280 0
179 -2070 2071 0
-2071 2281 0
180 -2071 2072 0
-2072 2282 0
181 -2072 2073 0
-2073 2283 0
182 -2073 2074 0
-2074 2284 0
183 -2074 2075 0
-2075 2285 0
184 -2075 2076 0
-2076 2286 0
185 -2076 2077 0
-2077 2287 0
186 -2077 2078 0
-2078 2288 0
187 -2078 2079 0
-2079 2289 0
188 -2079 2080 0
-2080 2290 0
189 -2080 2081 0
-2081 2291 0
190 -2081 2082 0
-2082 2292 0
191 -2082 2083 0
-2083 2293 0
192 -2083 2084 0
-2084 2294 0
193 -2084 2085 0
-2085 2295 0
194 -2085 2086 0
-2086 2296 0
195 -2086 2087 0
-2087 2297 0
196 -2087 2088 0
-2088 2298 0
197 -2088 2089 0
-2089 2299 0
198 -2089 2090 0
-2090 2300 0
199 -2090 2091 0
-2091 2301 0
200 -2091 2092 0
-2092 2302 0
201 -2092 2093 0
-2093 2303 0
202 -2093 2094 0
-2094 2304 0
203 -2094 2095 0
-2095 2305 0
204 -2095 2096 0
-2096 2306 0
205 -2096 2097 0
-2097 2307 0
206 -2097 2098 0
-2098 2308 0
207 -2098 2099 0
-2099 2309 0
208 -2099 2100 0
-2100 2310 0
209 -2100 2101 0
-2101 2311 0
210 -2101 2102 0
-2102 2312 0
211 -2102 2103 0
-2103 2313 0
212 -2103 2104 0
-2104 2314 0
213 -2104 2105 0
-2105 2315 0
214 -2105 2106 0
-2106 2316 0
215 -2106 2107 0
-2107 2317 0
216 -2107 2108 0
-2108 2318 0
217 -2108 2109 0
-2109 2319 0
218 -2109 2110 0
-2110 2320 0
219 -2110 0
10 2111 0
11 -2111 2112 0
12 -2112 2113 0
13 -2113 2114 0
14 -2114 2115 0
15 -2115 2116 0
16 -2116 2117 0
17 -2117 2118 0
18 -2118 2119 0
19 -2119 2120 0
20 -2120 2121 0
21 -2121 2122 0
22 -2122 2123 0
23 -2123 2124 0
24 -2124 2125 0
25 -2125 2126 0
26 -2126 2127 0
27 -2127 2128 0
28 -2128 2129 0
29 -2129 2130 0
30 -2130 2131 0
31 -2131 2132 0
32 -2132 2133 0
33 -2133 2134 0
34 -2134 2135 0
35 -2135 2136 0
36 -2136 2137 0
37 -2137 2138 0
38 -2138 2139 0
39 -2139 2140 0
40 -2140 2141 0
41 -2141 2142 0
42 -2142 2143 0
43 -2143 2144 0
44 -2144 2145 0
45 -2145 2146 0
46 -2146 2147 0
47 -2147 2148 0
48 -2148 2149 0
49 -2149 2150 0
50 -2150 2151 0
51 -2151 2152 0
52 -2152 2153 0
53 -2153 2154 0
54 -2154 2155 0
55 -2155 2156 0
56 -2156 2157 0
57 -2157 2158 0
58 -2158 2159 0
59 -2159 2160 0
60 -2160 2161 0
61 -2161 2162 0
62 -2162 2163 0
63 -2163 2164 0
64 -2164 2165 0
65 -2165 2166 0
66 -2166 2167 0
67 -2167 2168 0
68 -2168 2169 0
69 -2169 2170 0
70 -2170 2171 0
71 -2171 2172 0
72 -2172 2173 0
73 -2173 2174 0
74 -2174 2175 0
75 -2175 2176 0
76 -2176 2177 0
77 -2177 2178 0
78 -2178 2179 0
79 -2179 2180 0
80 -2180 2181 0
81 -2181 2182 0
82 -2182 2183 0
83 -2183 2184 0
84 -2184 2185 0
85 -2185 2186 0
86 -2186 2187 0
87 -2187 2188 0
88 -2188 2189 0
89 -2189 2190 0
90 -2190 2191 0
91 -2191 2192 0
92 -2192 2193 0
93 -2193 2194 0
94 -2194 2195 0
95 -2195 2196 0
96 -2196 2197 0
97 -2197 2198 0
98 -2198 2199 0
99 -2199 2200 0
100 -2200 2201 0
101 -2201 2202 0
102 -2202 2203 0
103 -2203 2204 0
104 -2204 2205 0
105 -2205 2206 0
106 -2206 2207 0
107 -2207 2208 0
108 -2208 2209 0
109 -2209 2210 0
110 -2210 2211 0
111 -2211 2212 0
112 -2212 2213 0
113 -2213 2214 0
114 -2214 2215 0
115 -2215 2216 0
116 -2216 2217 0
117 -2217 2218 0
118 -2218 2219 0
119 -2219 2220 0
120 -2220 2221 0
121 -2221 2222 0
122 -2222 2223 0
123 -2223 2224 0
124 -2224 2225 0
125 -2225 2226 0
126 -2226 2227 0
127 -2227 2228 0
128 -2228 2229 0
129 -2229 2230 0
130 -2230 2231 0
131 -2231 2232 0
132 -2232 2233 0
133 -2233 2234 0
134 -2234 2235 0
135 -2235 2236 0
136 -2236 2237 0
137 -2237 2238 0
138 -2238 2239 0
139 -2239 2240 0
140 -2240 2241 0
141 -2241 2242 0
142 -2242 2243 0
143 -2243 2244 0
144 -2244 2245 0
145 -2245 2246 0
146 -2246 2247 0
147 -2247 2248 0
148 -2248 2249 0
149 -2249 2250 0
150 -2250 2251 0
151 -2251 2252 0
152 -2252 2253 0
153 -2253 2254 0
154 -2254 2255 0
155 -2255 2256 0
156 -2256 2257 0
157 -2257 2258 0
158 -2258 2259 0
159 -2259 2260 0
160 -2260 2261 0
161 -2261 2262 0
162 -2262 2263 0
163 -2263 2264 0
164 -2264 2265 0
165 -2265 2266 0
166 -2266 2267 0
167 -2267 2268 0
168 -2268 2269 0
169 -2269 2270 0
170 -2270 2271 0
171 -2271 2272 0
172 -2272 2273 0
173 -2273 2274 0
174 -2274 2275 0
175 -2275 2276 0
176 -2276 2277 0
177 -2277 2278 0
178 -2278 2279 0
179 -2279 2280 0
180 -2280 2281 0
181 -2281 2282 0
182 -2282 2283 0
183 -2283 2284 0
184 -2284 2285 0
185 -2285 2286 0
186 -2286 2287 0
187 -2287 2288 0
188 -2288 2289 0
189 -2289 2290 0
190 -2290 2291 0
191 -2291 2292 0
192 -2292 2293 0
193 -2293 2294 0
194 -2294 2295 0
195 -2295 2296 0
196 -2296 2297 0
197 -2297 2298 0
198 -2298 2299 0
199 -2299 2300 0
200 -2300 2301 0
201 -2301 2302 0
202 -2302 2303 0
203 -2303 2304 0
204 -2304 2305 0
205 -2305 2306 0
206 -2306 2307 0
207 -2307 2308 0
208 -2308 2309 0
209 -2309 2310 0
210 -2310 2311 0
211 -2311 2312 0
212 -2312 2313 0
213 -2313 2314 0
214 -2314 2315 0
215 -2315 2316 0
216 -2316 2317 0
217 -2317 2318 0
218 -2318 2319 0
219 -2319 2320 0
220 -2320 0
-1 221 0
-221 222 0
-2 -221 223 0
-223 224 0
-3 -223 225 0
-225 226 0
-4 -225 227 0
-227 228 0
-5 -227 229 0
-229 230 0
-6 -229 231 0
-231 232 0
-7 -231 233 0
-233 234 0
-8 -233 235 0
-235 236 0
-9 -235 237 0
-237 238 0
-10 -237 239 0
-239 240 0
-11 -239 0
-2 222 0
-222 241 0
-3 -222 224 0
-224 242 0
-4 -224 226 0
-226 243 0
-5 -226 228 0
-228 244 0
-6 -228 230 0
-230 245 0
-7 -230 232 0
-232 246 0
-8 -232 234 0
-234 247 0
-9 -234 236 0
-236 248 0
-10 -236 238 0
-238 249 0
-11 -238 240 0
-240 250 0
-12 -240 0
-3 241 0
-241 251 0
-4 -241 242 0
-242 252 0
-5 -242 243 0
-243 253 0
-6 -243 244 0
-244 254 0
-7 -244 245 0
-245 255 0
-8 -245 246 0
-246 256 0
-9 -246 247 0
-247 257 0
-10 -247 248 0
-248 258 0
-11 -248 249 0
-249 259 0
-12 -249 250 0
-250 260 0
-13 -250 0
-4 251 0
-251 261 0
-5 -251 252 0
-252 262 0
-6 -252 253 0
-253 263 0
-7 -253 254 0
-254 264 0
-8 -254 255 0
-255 265 0
-9 -255 256 0
-256 266 0
-10 -256 257 0
-257 267 0
-11 -257 258 0
-258 268 0
-12 -258 259 0
-259 269 0
-13 -259 260 0
-260 270 0
-14 -260 0
-5 261 0
-261 271 0
-6 -261 262 0
-262 272 0
-7 -262 263 0
-263 273 0
-8 -263 264 0
-264 274 0
-9 -264 265 0
-265 275 0
-10 -265 266 0
-266 276 0
-11 -266 267 0
-267 277 0
-12 -267 268 0
-268 278 0
-13 -268 269 0
-269 279 0
-14 -269 270 0
-270 280 0
-15 -270 0
-6 271 0
-271 281 0
-7 -271 272 0
-272 282 0
-8 -272 273 0
-273 283 0
-9 -273 274 0
-274 284 0
-10 -274 275 0
-275 285 0
-11 -275 276 0
-276 286 0
-12 -276 277 0
-277 287 0
-13 -277 278 0
-278 288 0
-14 -278 279 0
-279 289 0
-15 -279 280 0
-280 290 0
-16 -280 0
-7 281 0
-281 291 0
-8 -281 282 0
-282 292 0
-9 -282 283 0
-283 293 0
-10 -283 284 0
-284 294 0
-11 -284 285 0
-285 295 0
-12 -285 286 0
-286 296 0
-13 -286 287 0
-287 297 0
-14 -287 288 0
-288 298 0
-15 -288 289 0
-289 299 0
-16 -289 290 0
-290 300 0
-17 -290 0
-8 291 0
-291 301 0
-9 -291 292 0
-292 302 0
-10 -292 293 0
-293 303 0
-11 -293 294 0
-294 304 0
-12 -294 295 0
-295 305 0
-13 -295 296 0
-296 306 0
-14 -296 297 0
-297 307 0
-15 -297 298 0
-298 308 0
-16 -298 299 0
-299 309 0
-17 -299 300 0
-300 310 0
-18 -300 0
-9 301 0
-301 311 0
-10 -301 302 0
-302 312 0
-11 -302 303 0
-303 313 0
-12 -303 304 0
-304 314 0
-13 -304 305 0
-305 315 0
-14 -305 306 0
-306 316 0
-15 -306 307 0
-307 317 0
-16 -307 308 0
-308 318 0
-17 -308 309 0
-309 319 0
-18 -309 310 0
-310 320 0
-19 -310 0
-10 311 0
-311 321 0
-11 -311 312 0
-312 322 0
-12 -312 313 0
-313 323 0
-13 -313 314 0
-314 324 0
-14 -314 315 0
-315 325 0
-15 -315 316 0
-316 326 0
-16 -316 317 0
-317 327 0
-17 -317 318 0
-318 328 0
-18 -318 319 0
-319 329 0
-19 -319 320 0
-320 330 0
-20 -320 0
-11 321 0
-321 331 0
-12 -321 322 0
-322 332 0
-13 -322 323 0
-323 333 0
-14 -323 324 0
-324 334 0
-15 -324 325 0
-325 335 0
-16 -325 326 0
-326 336 0
-17 -326 327 0
-327 337 0
-18 -327 328 0
-328 338 0
-19 -328 329 0
-329 339 0
-20 -329 330 0
-330 340 0
-21 -330 0
-12 331 0
-331 341 0
-13 -331 332 0
-332 342 0
-14 -332 333 0
-333 343 0
-15 -333 334 0
-334 344 0
-16 -334 335 0
-335 345 0
-17 -335 336 0
-336 346 0
-18 -336 337 0
-337 347 0
-19 -337 338 0
-338 348 0
-20 -338 339 0
-339 349 0
-21 -339 340 0
-340 350 0
-22 -340 0
-13 341 0
-341 351 0
-14 -341 342 0
-342 352 0
-15 -342 343 0
-343 353 0
-16 -343 344 0
-344 354 0
-17 -344 345 0
-345 355 0
-18 -345 346 0
-346 356 0
-19 -346 347 0
-347 357 0
-20 -347 348 0
-348 358 0
-21 -348 349 0
-349 359 0
-22 -349 350 0
-350 360 0
-23 -350 0
-14 351 0
-351 361 0
-15 -351 352 0
-352 362 0
-16 -352 353 0
-353 363 0
-17 -353 354 0
-354 364 0
-18 -354 355 0
-355 365 0
-19 -355 356 0
-356 366 0
-20 -356 357 0
-357 367 0
-21 -357 358 0
-358 368 0
-22 -358 359 0
-359 369 0
-23 -359 360 0
-360 370 0
-24 -360 0
-15 361 0
-361 371 0
-16 -361 362 0
-362 372 0
-17 -362 363 0
-363 373 0
-18 -363 364 0
-364 374 0
-19 -364 365 0
-365 375 0
-20 -365 366 0
-366 376 0
-21 -366 367 0
-367 377 0
-22 -367 368 0
-368 378 0
-23 -368 369 0
-369 379 0
-24 -369 370 0
-370 380 0
-25 -370 0
-16 371 0
-371 381 0
-17 -371 372 0
-372 382 0
-18 -372 373 0
-373 383 0
-19 -373 374 0
-374 384 0
-20 -374 375 0
-375 385 0
-21 -375 376 0
-376 386 0
-22 -376 377 0
-377 387 0
-23 -377 378 0
-378 388 0
-24 -378 379 0
-379 389 0
-25 -379 380 0
-380 390 0
-26 -380 0
-17 381 0
-381 391 0
-18 -381 382 0
-382 392 0
-19 -382 383 0
-383 393 0
-20 -383 384 0
-384 394 0
-21 -384 385 0
-385 395 0
-22 -385 386 0
-386 396 0
-23 -386 387 0
-387 397 0
-24 -387 388 0
-388 398 0
-25 -388 389 0
-389 399 0
-26 -389 390 0
-390 400 0
-27 -390 0
-18 391 0
-391 401 0
-19 -391 392 0
-392 402 0
-20 -392 393 0
-393 403 0
-21 -393 394 0
-394 404 0
-22 -394 395 0
-395 405 0
-23 -395 396 0
-396 406 0
-24 -396 397 0
-397 407 0
-25 -397 398 0
-398 408 0
-26 -398 399 0
-399 409 0
-27 -399 400 0
-400 410 0
-28 -400 0
-19 401 0
-401 411 0
-20 -401 402 0
-402 412 0
-21 -402 403 0
-403 413 0
-22 -403 404 0
-404 414 0
-23 -404 405 0
-405 415 0
-24 -405 406 0
-406 416 0
-25 -406 407 0
-407 417 0
-26 -407 408 0
-408 418 0
-27 -408 409 0
-409 419 0
-28 -409 410 0
-410 420 0
-29 -410 0
-20 411 0
-411 421 0
-21 -411 412 0
-412 422 0
-22 -412 413 0
-413 423 0
-23 -413 414 0
-414 424 0
-24 -414 415 0
-415 425 0
-25 -415 416 0
-416 426 0
-26 -416 417 0
-417 427 0
-27 -417 418 0
-418 428 0
-28 -418 419 0
-419 429 0
-29 -419 420 0
-420 430 0
-30 -420 0
-21 421 0
-421 431 0
-22 -421 422 0
-422 432 0
-23 -422 423 0
-423 433 0
-24 -423 424 0
-424 434 0
-25 -424 425 0
-425 435 0
-26 -425 426 0
-426 436 0
-27 -426 427 0
-427 437 0
-28 -427 428 0
-428 438 0
-29 -428 429 0
-429 439 0
-30 -429 430 0
-430 440 0
-31 -430 0
-22 431 0
-431 441 0
-23 -431 432 0
-432 442 0
-24 -432 433 0
-433 443 0
-25 -433 434 0
-434 444 0
-26 -434 435 0
-435 445 0
-27 -435 436 0
-436 446 0
-28 -436 437 0
-437 447 0
-29 -437 438 0
-438 448 0
-30 -438 439 0
-439 449 0
-31 -439 440 0
-440 450 0
-32 -440 0
-23 441 0
-441 451 0
-24 -441 442 0
-442 452 0
-25 -442 443 0
-443 453 0
-26 -443 444 0
-444 454 0
-27 -444 445 0
-445 455 0
-28 -445 446 0
-446 456 0
-29 -446 447 0
-447 457 0
-30 -447 448 0
-448 458 0
-31 -448 449 0
-449 459 0
-32 -449 450 0
-450 460 0
-33 -450 0
-24 451 0
-451 461 0
-25 -451 452 0
-452 462 0
-26 -452 453 0
-453 463 0
-27 -453 454 0
-454 464 0
-28 -454 455 0
-455 465 0
-29 -455 456 0
-456 466 0
-30 -456 457 0
-457 467 0
-31 -457 458 0
-458 468 0
-32 -458 459 0
-459 469 0
-33 -459 460 0
-460 470 0
-34 -460 0
-25 461 0
-461 471 0
-26 -461 462 0
-462 472 0
-27 -462 463 0
-463 473 0
-28 -463 464 0
-464 474 0
-29 -464 465 0
-465 475 0
-30 -465 466 0
-466 476 0
-31 -466 467 0
-467 477 0
-32 -467 468 0
-468 478 0
-33 -468 469 0
-469 479 0
-34 -469 470 0
-470 480 0
-35 -470 0
-26 471 0
-471 481 0
-27 -471 472 0
-472 482 0
-28 -472 473 0
-473 483 0
-29 -473 474 0
-474 484 0
-30 -474 475 0
-475 485 0
-31 -475 476 0
-476 486 0
-32 -476 477 0
-477 487 0
-33 -477 478 0
-478 488 0
-34 -478 479 0
-479 489 0
-35 -479 480 0
-480 490 0
-36 -480 0
-27 481 0
-481 491 0
-28 -481 482 0
-482 492 0
-29 -482 483 0
-483 493 0
-30 -483 484 0
-484 494 0
-31 -484 485 0
-485 495 0
-32 -485 486 0
-486 496 0
-33 -486 487 0
-487 497 0
-34 -487 488 0
-488 498 0
-35 -488 489 0
-489 499 0
-36 -489 490 0
-490 500 0
-37 -490 0
-28 491 0
-491 501 0
-29 -491 492 0
-492 502 0
-30 -492 493 0
-493 503 0
-31 -493 494 0
-494 504 0
-32 -494 495 0
-495 505 0
-33 -495 496 0
-496 506 0
-34 -496 497 0
-497 507 0
-35 -497 498 0
-498 508 0
-36 -498 499 0
-499 509 0
-37 -499 500 0
-500 510 0
-38 -500 0
-29 501 0
-501 511 0
-30 -501 502 0
-502 512 0
-31 -502 503 0
-503 513 0
-32 -503 504 0
-504 514 0
-33 -504 505 0
-505 515 0
-34 -505 506 0
-506 516 0
-35 -506 507 0
-507 517 0
-36 -507 508 0
-508 518 0
-37 -508 509 0
-509 519 0
-38 -509 510 0
-510 520 0
-39 -510 0
-30 511 0
-511 521 0
-31 -511 512 0
-512 522 0
-32 -512 513 0
-513 523 0
-33 -513 514 0
-514 524 0
-34 -514 515 0
-515 525 0
-35 -515 516 0
-516 526 0
-36 -516 517 0
-517 527 0
-37 -517 518 0
-518 528 0
-38 -518 519 0
-519 529 0
-39 -519 520 0
-520 530 0
-40 -520 0
-31 521 0
-521 531 0
-32 -521 522 0
-522 532 0
-33 -522 523 0
-523 533 0
-34 -523 524 0
-524 534 0
-35 -524 525 0
-525 535 0
-36 -525 526 0
-526 536 0
-37 -526 527 0
-527 537 0
-38 -527 528 0
-528 538 0
-39 -528 529 0
-529 539 0
-40 -529 530 0
-530 540 0
-41 -530 0
-32 531 0
-531 541 0
-33 -531 532 0
-532 542 0
-34 -532 533 0
-533 543 0
-35 -533 534 0
-534 544 0
-36 -534 535 0
-535 545 0
-37 -535 536 0
-536 546 0
-38 -536 537 0
-537 547 0
-39 -537 538 0
-538 548 0
-40 -538 539 0
-539 549 0
-41 -539 540 0
-540 550 0
-42 -540 0
-33 541 0
-541 551 0
-34 -541 542 0
-542 552 0
-35 -542 543 0
-543 553 0
-36 -543 544 0
-544 554 0
-37 -544 545 0
-545 555 0
-38 -545 546 0
-546 556 0
-39 -546 547 0
-547 557 0
-40 -547 548 0
-548 558 0
-41 -548 549 0
-549 559 0
-42 -549 550 0
-550 560 0
-43 -550 0
-34 551 0
-551 561 0
-35 -551 552 0
-552 562 0
-36 -552 553 0
-553 563 0
-37 -553 554 0
-554 564 0
-38 -554 555 0
-555 565 0
-39 -555 556 0
-556 566 0
-40 -556 557 0
-557 567 0
-41 -557 558 0
-558 568 0
-42 -558 559 0
-559 569 0
-43 -559 560 0
-560 570 0
-44 -560 0
-35 561 0
-561 571 0
-36 -561 562 0
-562 572 0
-37 -562 563 0
-563 573 0
-38 -563 564 0
-564 574 0
-39 -564 565 0
-565 575 0
-40 -565 566 0
-566 576 0
-41 -566 567 0
-567 577 0
-42 -567 568 0
-568 578 0
-43 -568 569 0
-569 579 0
-44 -569 570 0
-570 580 0
-45 -570 0
-36 571 0
-571 581 0
-37 -571 572 0
-572 582 0
-38 -572 573 0
-573 583 0
-39 -573 574 0
-574 584 0
-40 -574 575 0
-575 585 0
-41 -575 576 0
-576 586 0
-42 -576 577 0
-577 587 0
-43 -577 578 0
-578 588 0
-44 -578 579 0
-579 589 0
-45 -579 580 0
-580 590 0
-46 -580 0
-37 581 0
-581 591 0
-38 -581 582 0
-582 592 0
-39 -582 583 0
-583 593 0
-40 -583 584 0
-584 594 0
-41 -584 585 0
-585 595 0
-42 -585 586 0
-586 596 0
-43 -586 587 0
-587 597 0
-44 -587 588 0
-588 598 0
-45 -588 589 0
-589 599 0
-46 -589 590 0
-590 600 0
-47 -590 0
-38 591 0
-591 601 0
-39 -591 592 0
-592 602 0
-40 -592 593 0
-593 603 0
-41 -593 594 0
-594 604 0
-42 -594 595 0
-595 605 0
-43 -595 596 0
-596 606 0
-44 -596 597 0
-597 607 0
-45 -597 598 0
-598 608 0
-46 -598 599 0
-599 609 0
-47 -599 600 0
-600 610 0
-48 -600 0
-39 601 0
-601 611 0
-40 -601 602 0
-602 612 0
-41 -602 603 0
-603 613 0
-42 -603 604 0
-604 614 0
-43 -604 605 0
-605 615 0
-44 -605 606 0
-606 616 0
-45 -606 607 0
-607 617 0
-46 -607 608 0
-608 618 0
-47 -608 609 0
-609 619 0
-48 -609 610 0
-610 620 0
-49 -610 0
-40 611 0
-611 621 0
-41 -611 612 0
-612 622 0
-42 -612 613 0
-613 623 0
-43 -613 614 0
-614 624 0
-44 -614 615 0
-615 625 0
-45 -615 616 0
-616 626 0
-46 -616 617 0
-617 627 0
-47 -617 618 0
-618 628 0
-48 -618 619 0
-619 629 0
-49 -619 620 0
-620 630 0
-50 -620 0
-41 621 0
-621 631 0
-42 -621 622 0
-622 632 0
-43 -622 623 0
-623 633 0
-44 -623 624 0
-624 634 0
-45 -624 625 0
-625 635 0
-46 -625 626 0
-626 636 0
-47 -626 627 0
-627 637 0
-48 -627 628 0
-628 638 0
-49 -628 629 0
-629 639 0
-50 -629 630 0
-630 640 0
-51 -630 0
-42 631 0
-631 641 0
-43 -631 632 0
-632 642 0
-44 -632 633 0
-633 643 0
-45 -633 634 0
-634 644 0
-46 -634 635 0
-635 645 0
-47 -635 636 0
-636 646 0
-48 -636 637 0
-637 647 0
-49 -637 638 0
-638 648 0
-50 -638 639 0
-639 649 0
-51 -639 640 0
-640 650 0
-52 -640 0
-43 641 0
-641 651 0
-44 -641 642 0
-642 652 0
-45 -642 643 0
-643 653 0
-46 -643 644 0
-644 654 0
-47 -644 645 0
-645 655 0
-48 -645 646 0
-646 656 0
-49 -646 647 0
-647 657 0
-50 -647 648 0
-648 658 0
-51 -648 649 0
-649 659 0
-52 -649 650 0
-650 660 0
-53 -650 0
-44 651 0
-651 661 0
-45 -651 652 0
-652 662 0
-46 -652 653 0
-653 663 0
-47 -653 654 0
-654 664 0
-48 -654 655 0
-655 665 0
-49 -655 656 0
-656 666 0
-50 -656 657 0
-657 667 0
-51 -657 658 0
-658 668 0
-52 -658 659 0
-659 669 0
-53 -659 660 0
-660 670 0
-54 -660 0
-45 661 0
-661 671 0
-46 -661 662 0
-662 672 0
-47 -662 663 0
-663 673 0
-48 -663 664 0
-664 674 0
-49 -664 665 0
-665 675 0
-50 -665 666 0
-666 676 0
-51 -666 667 0
-667 677 0
-52 -667 668 0
-668 678 0
-53 -668 669 0
-669 679 0
-54 -669 670 0
-670 680 0
-55 -670 0
-46 671 0
-671 681 0
-47 -671 672 0
-672 682 0
-48 -672 673 0
-673 683 0
-49 -673 674 0
-674 684 0
-50 -674 675 0
-675 685 0
-51 -675 676 0
-676 686 0
-52 -676 677 0
-677 687 0
-53 -677 678 0
-678 688 0
-54 -678 679 0
-679 689 0
-55 -679 680 0
-680 690 0
-56 -680 0
-47 681 0
-681 691 0
-48 -681 682 0
-682 692 0
-49 -682 683 0
-683 693 0
-50 -683 684 0
-684 694 0
-51 -684 685 0
-685 695 0
-52 -685 686 0
-686 696 0
-53 -686 687 0
-687 697 0
-54 -687 688 0
-688 698 0
-55 -688 689 0
-689 699 0
-56 -689 690 0
-690 700 0
-57 -690 0
-48 691 0
-691 701 0
-49 -691 692 0
-692 702 0
-50 -692 693 0
-693 703 0
-51 -693 694 0
-694 704 0
-52 -694 695 0
-695 705 0
-53 -695 696 0
-696 706 0
-54 -696 697 0
-697 707 0
-55 -697 698 0
-698 708 0
-56 -698 699 0
-699 709 0
-57 -699 700 0
-700 710 0
-58 -700 0
-49 701 0
-701 711 0
-50 -701 702 0
-702 712 0
-51 -702 703 0
-703 713 0
-52 -703 704 0
-704 714 0
-53 -704 705 0
-705 715 0
-54 -705 706 0
-706 716 0
-55 -706 707 0
-707 717 0
-56 -707 708 0
-708 718 0
-57 -708 709 0
-709 719 0
-58 -709 710 0
-710 720 0
-59 -710 0
-50 711 0
-711 721 0
-51 -711 712 0
-712 722 0
-52 -712 713 0
-713 723 0
-53 -713 714 0
-714 724 0
-54 -714 715 0
-715 725 0
-55 -715 716 0
-716 726 0
-56 -716 717 0
-717 727 0
-57 -717 718 0
-718 728 0
-58 -718 719 0
-719 729 0
-59 -719 720 0
-720 730 0
-60 -720 0
-51 721 0
-721 731 0
-52 -721 722 0
-722 732 0
-53 -722 723 0
-723 733 0
-54 -723 724 0
-724 734 0
-55 -724 725 0
-725 735 0
-56 -725 726 0
-726 736 0
-57 -726 727 0
-727 737 0
-58 -727 728 0
-728 738 0
-59 -728 729 0
-729 739 0
-60 -729 730 0
-730 740 0
-61 -730 0
-52 731 0
-731 741 0
-53 -731 732 0
-732 742 0
-54 -732 733 0
-733 743 0
-55 -733 734 0
-734 744 0
-56 -734 735 0
-735 745 0
-57 -735 736 0
-736 746 0
-58 -736 737 0
-737 747 0
-59 -737 738 0
-738 748 0
-60 -738 739 0
-739 749 0
-61 -739 740 0
-740 750 0
-62 -740 0
-53 741 0
-741 751 0
-54 -741 742 0
-742 752 0
-55 -742 743 0
-743 753 0
-56 -743 744 0
-744 754 0
-57 -744 745 0
-745 755 0
-58 -745 746 0
-746 756 0
-59 -746 747 0
-747 757 0
-60 -747 748 0
-748 758 0
-61 -748 749 0
-749 759 0
-62 -749 750 0
-750 760 0
-63 -750 0
-54 751 0
-751 761 0
-55 -751 752 0
-752 762 0
-56 -752 753 0
-753 763 0
-57 -753 754 0
-754 764 0
-58 -754 755 0
-755 765 0
-59 -755 756 0
-756 766 0
-60 -756 757 0
-757 767 0
-61 -757 758 0
-758 768 0
-62 -758 759 0
-759 769 0
-63 -759 760 0
-760 770 0
-64 -760 0
-55 761 0
-761 771 0
-56 -761 762 0
-762 772 0
-57 -762 763 0
-763 773 0
-58 -763 764 0
-764 774 0
-59 -764 765 0
-765 775 0
-60 -765 766 0
-766 776 0
-61 -766 767 0
-767 777 0
-62 -767 768 0
-768 778 0
-63 -768 769 0
-769 779 0
-64 -769 770 0
-770 780 0
-65 -770 0
-56 771 0
-771 781 0
-57 -771 772 0
-772 782 0
-58 -772 773 0
-773 783 0
-59 -773 774 0
-774 784 0
-60 -774 775 0
-775 785 0
-61 -775 776 0
-776 786 0
-62 -776 777 0
-777 787 0
-63 -777 778 0
-778 788 0
-64 -778 779 0
-779 789 0
-65 -779 780 0
-780 790 0
-66 -780 0
-57 781 0
-781 791 0
-58 -781 782 0
-782 792 0
-59 -782 783 0
-783 793 0
-60 -783 784 0
-784 794 0
-61 -784 785 0
-785 795 0
-62 -785 786 0
-786 796 0
-63 -786 787 0
-787 797 0
-64 -787 788 0
-788 798 0
-65 -788 789 0
-789 799 0
-66 -789 790 0
-790 800 0
-67 -790 0
-58 791 0
-791 801 0
-59 -791 792 0
-792 802 0
-60 -792 793 0
-793 803 0
-61 -793 794 0
-794 804 0
-62 -794 795 0
-795 805 0
-63 -795 796 0
-796 806 0
-64 -796 797 0
-797 807 0
-65 -797 798 0
-798 808 0
-66 -798 799 0
-799 809 0
-67 -799 800 0
-800 810 0
-68 -800 0
-59 801 0
-801 811 0
-60 -801 802 0
-802 812 0
-61 -802 803 0
-803 813 0
-62 -803 804 0
-804 814 0
-63 -804 805 0
-805 815 0
-64 -805 806 0
-806 816 0
-65 -806 807 0
-807 817 0
-66 -807 808 0
-808 818 0
-67 -808 809 0
-809 819 0
-68 -809 810 0
-810 820 0
-69 -810 0
-60 811 0
-811 821 0
-61 -811 812 0
-812 822 0
-62 -812 813 0
-813 823 0
-63 -813 814 0
-814 824 0
-64 -814 815 0
-815 825 0
-65 -815 816 0
-816 826 0
-66 -816 817 0
-817 827 0
-67 -817 818 0
-818 828 0
-68 -818 819 0
-819 829 0
-69 -819 820 0
-820 830 0
-70 -820 0
-61 821 0
-821 831 0
-62 -821 822 0
-822 832 0
-63 -822 823 0
-823 833 0
-64 -823 824 0
-824 834 0
-65 -824 825 0
-825 835 0
-66 -825 826 0
-826 836 0
-67 -826 827 0
-827 837 0
-68 -827 828 0
-828 838 0
-69 -828 829 0
-829 839 0
-70 -829 830 0
-830 840 0
-71 -830 0
-62 831 0
-831 841 0
-63 -831 832 0
-832 842 0
-64 -832 833 0
-833 843 0
-65 -833 834 0
-834 844 0
-66 -834 835 0
-835 845 0
-67 -835 836 0
-836 846 0
-68 -836 837 0
-837 847 0
-69 -837 838 0
-838 848 0
-70 -838 839 0
-839 849 0
-71 -839 840 0
-840 850 0
-72 -840 0
-63 841 0
-841 851 0
-64 -841 842 0
-842 852 0
-65 -842 843 0
-843 853 0
-66 -843 844 0
-844 854 0
-67 -844 845 0
-845 855 0
-68 -845 846 0
-846 856 0
-69 -846 847 0
-847 857 0
-70 -847 848 0
-848 858 0
-71 -848 849 0
-849 859 0
-72 -849 850 0
-850 860 0
-73 -850 0
-64 851 0
-851 861 0
-65 -851 852 0
-852 862 0
-66 -852 853 0
-853 863 0
-67 -853 854 0
-854 864 0
-68 -854 855 0
-855 865 0
-69 -855 856 0
-856 866 0
-70 -856 857 0
-857 867 0
-71 -857 858 0
-858 868 0
-72 -858 859 0
-859 869 0
-73 -859 860 0
-860 870 0
-74 -860 0
-65 861 0
-861 871 0
-66 -861 862 0
-862 872 0
-67 -862 863 0
-863 873 0
-68 -863 864 0
-864 874 0
-69 -864 865 0
-865 875 0
-70 -865 866 0
-866 876 0
-71 -866 867 0
-867 877 0
-72 -867 868 0
-868 878 0
-73 -868 869 0
-869 879 0
-74 -869 870 0
-870 880 0
-75 -870 0
-66 871 0
-871 881 0
-67 -871 872 0
-872 882 0
-68 -872 873 0
-873 883 0
-69 -873 874 0
-874 884 0
-70 -874 875 0
-875 885 0
-71 -875 876 0
-876 886 0
-72 -876 877 0
-877 887 0
-73 -877 878 0
-878 888 0
-74 -878 879 0
-879 889 0
-75 -879 880 0
-880 890 0
-76 -880 0
-67 881 0
-881 891 0
-68 -881 882 0
-882 892 0
-69 -882 883 0
-883 893 0
-70 -883 884 0
-884 894 0
-71 -884 885 0
-885 895 0
-72 -885 886 0
-886 896 0
-73 -886 887 0
-887 897 0
-74 -887 888 0
-888 898 0
-75 -888 889 0
-889 899 0
-76 -889 890 0
-890 900 0
-77 -890 0
-68 891 0
-891 901 0
-69 -891 892 0
-892 902 0
-70 -892 893 0
-893 903 0
-71 -893 894 0
-894 904 0
-72 -894 895 0
-895 905 0
-73 -895 896 0
-896 906 0
-74 -896 897 0
-897 907 0
-75 -897 898 0
-898 908 0
-76 -898 899 0
-899 909 0
-77 -899 900 0
-900 910 0
-78 -900 0
-69 901 0
-901 911 0
-70 -901 902 0
-902 912 0
-71 -902 903 0
-903 913 0
-72 -903 904 0
-904 914 0
-73 -904 905 0
-905 915 0
-74 -905 906 0
-906 916 0
-75 -906 907 0
-907 917 0
-76 -907 908 0
-908 918 0
-77 -908 909 0
-909 919 0
-78 -909 910 0
-910 920 0
-79 -910 0
-70 911 0
-911 921 0
-71 -911 912 0
-912 922 0
-72 -912 913 0
-913 923 0
-73 -913 914 0
-914 924 0
-74 -914 915 0
-915 925 0
-75 -915 916 0
-916 926 0
-76 -916 917 0
-917 927 0
-77 -917 918 0
-918 928 0
-78 -918 919 0
-919 929 0
-79 -919 920 0
-920 930 0
-80 -920 0
-71 921 0
-921 931 0
-72 -921 922 0
-922 932 0
-73 -922 923 0
-923 933 0
-74 -923 924 0
-924 934 0
-75 -924 925 0
-925 935 0
-76 -925 926 0
-926 936 0
-77 -926 927 0
-927 937 0
-78 -927 928 0
-928 938 0
-79 -928 929 0
-929 939 0
-80 -929 930 0
-930 940 0
-81 -930 0
-72 931 0
-931 941 0
-73 -931 932 0
-932 942 0
-74 -932 933 0
-933 943 0
-75 -933 934 0
-934 944 0
-76 -934 935 0
-935 945 0
-77 -935 936 0
-936 946 0
-78 -936 937 0
-937 947 0
-79 -937 938 0
-938 948 0
-80 -938 939 0
-939 949 0
-81 -939 940 0
-940 950 0
-82 -940 0
-73 941 0
-941 951 0
-74 -941 942 0
-942 952 0
-75 -942 943 0
-943 953 0
-76 -943 944 0
-944 954 0
-77 -944 945 0
-945 955 0
-78 -945 946 0
-946 956 0
-79 -946 947 0
-947 957 0
-80 -947 948 0
-948 958 0
-81 -948 949 0
-949 959 0
-82 -949 950 0
-950 960 0
-83 -950 0
-74 951 0
-951 961 0
-75 -951 952 0
-952 962 0
-76 -952 953 0
-953 963 0
-77 -953 954 0
-954 964 0
-78 -954 955 0
-955 965 0
-79 -955 956 0
-956 966 0
-80 -956 957 0
-957 967 0
-81 -957 958 0
-958 968 0
-82 -958 959 0
-959 969 0
-83 -959 960 0
-960 970 0
-84 -960 0
-75 961 0
-961 971 0
-76 -961 962 0
-962 972 0
-77 -962 963 0
-963 973 0
-78 -963 964 0
-964 974 0
-79 -964 965 0
-965 975 0
-80 -965 966 0
-966 976 0
-81 -966 967 0
-967 977 0
-82 -967 968 0
-968 978 0
-83 -968 969 0
-969 979 0
-84 -969 970 0
-970 980 0
-85 -970 0
-76 971 0
-971 981 0
-77 -971 972 0
-972 982 0
-78 -972 973 0
-973 983 0
-79 -973 974 0
-974 984 0
-80 -974 975 0
-975 985 0
-81 -975 976 0
-976 986 0
-82 -976 977 0
-977 987 0
-83 -977 978 0
-978 988 0
-84 -978 979 0
-979 989 0
-85 -979 980 0
-980 990 0
-86 -980 0
-77 981 0
-981 991 0
-78 -981 982 0
-982 992 0
-79 -982 983 0
-983 993 0
-80 -983 984 0
-984 994 0
-81 -984 985 0
-985 995 0
-82 -985 986 0
-986 996 0
-83 -986 987 0
-987 997 0
-84 -987 988 0
-988 998 0
-85 -988 989 0
-989 999 0
-86 -989 990 0
-990 1000 0
-87 -990 0
-78 991 0
-991 1001 0
-79 -991 992 0
-992 1002 0
-80 -992 993 0
-993 1003 0
-81 -993 994 0
-994 1004 0
-82 -994 995 0
-995 1005 0
-83 -995 996 0
-996 1006 0
-84 -996 997 0
-997 1007 0
-85 -997 998 0
-998 1008 0
-86 -998 999 0
-999 1009 0
-87 -999 1000 0
-1000 1010 0
-88 -1000 0
-79 1001 0
-1001 1011 0
-80 -1001 1002 0
-1002 1012 0
-81 -1002 1003 0
-1003 1013 0
-82 -1003 1004 0
-1004 1014 0
-83 -1004 1005 0
-1005 1015 0
-84 -1005 1006 0
-1006 1016 0
-85 -1006 1007 0
-1007 1017 0
-86 -1007 1008 0
-1008 1018 0
-87 -1008 1009 0
-1009 1019 0
-88 -1009 1010 0
-1010 1020 0
-89 -1010 0
-80 1011 0
-1011 1021 0
-81 -1011 1012 0
-1012 1022 0
-82 -1012 1013 0
-1013 1023 0
-83 -1013 1014 0
-1014 1024 0
-84 -1014 1015 0
-1015 1025 0
-85 -1015 1016 0
-1016 1026 0
-86 -1016 1017 0
-1017 1027 0
-87 -1017 1018 0
-1018 1028 0
-88 -1018 1019 0
-1019 1029 0
-89 -1019 1020 0
-1020 1030 0
-90 -1020 0
-81 1021 0
-1021 1031 0
-82 -1021 1022 0
-1022 1032 0
-83 -1022 1023 0
-1023 1033 0
-84 -1023 1024 0
-1024 1034 0
-85 -1024 1025 0
-1025 1035 0
-86 -1025 1026 0
-1026 1036 0
-87 -1026 1027 0
-1027 1037 0
-88 -1027 1028 0
-1028 1038 0
-89 -1028 1029 0
-1029 1039 0
-90 -1029 1030 0
-1030 1040 0
-91 -1030 0
-82 1031 0
-1031 1041 0
-83 -1031 1032 0
-1032 1042 0
-84 -1032 1033 0
-1033 1043 0
-85 -1033 1034 0
-1034 1044 0
-86 -1034 1035 0
-1035 1045 0
-87 -1035 1036 0
-1036 1046 0
-88 -1036 1037 0
-1037 1047 0
-89 -1037 1038 0
-1038 1048 0
-90 -1038 1039 0
-1039 1049 0
-91 -1039 1040 0
-1040 1050 0
-92 -1040 0
-83 1041 0
-1041 1051 0
-84 -1041 1042 0
-1042 1052 0
-85 -1042 1043 0
-1043 1053 0
-86 -1043 1044 0
-1044 1054 0
-87 -1044 1045 0
-1045 1055 0
-88 -1045 1046 0
-1046 1056 0
-89 -1046 1047 0
-1047 1057 0
-90 -1047 1048 0
-1048 1058 0
-91 -1048 1049 0
-1049 1059 0
-92 -1049 1050 0
-1050 1060 0
-93 -1050 0
-84 1051 0
-1051 1061 0
-85 -1051 1052 0
-1052 1062 0
-86 -1052 1053 0
-1053 1063 0
-87 -1053 1054 0
-1054 1064 0
-88 -1054 1055 0
-1055 1065 0
-89 -1055 1056 0
-1056 1066 0
-90 -1056 1057 0
-1057 1067 0
-91 -1057 1058 0
-1058 1068 0
-92 -1058 1059 0
-1059 1069 0
-93 -1059 1060 0
-1060 1070 0
-94 -1060 0
-85 1061 0
-1061 1071 0
-86 -1061 1062 0
-1062 1072 0
-87 -1062 1063 0
-1063 1073 0
-88 -1063 1064 0
-1064 1074 0
-89 -1064 1065 0
-1065 1075 0
-90 -1065 1066 0
-1066 1076 0
-91 -1066 1067 0
-1067 1077 0
-92 -1067 1068 0
-1068 1078 0
-93 -1068 1069 0
-1069 1079 0
-94 -1069 1070 0
-1070 1080 0
-95 -1070 0
-86 1071 0
-1071 1081 0
-87 -1071 1072 0
-1072 1082 0
-88 -1072 1073 0
-1073 1083 0
-89 -1073 1074 0
-1074 1084 0
-90 -1074 1075 0
-1075 1085 0
-91 -1075 1076 0
-1076 1086 0
-92 -1076 1077 0
-1077 1087 0
-93 -1077 1078 0
-1078 1088 0
-94 -1078 1079 0
-1079 1089 0
-95 -1079 1080 0
-1080 1090 0
-96 -1080 0
-87 1081 0
-1081 1091 0
-88 -1081 1082 0
-1082 1092 0
-89 -1082 1083 0
-1083 1093 0
-90 -1083 1084 0
-1084 1094 0
-91 -1084 1085 0
-1085 1095 0
-92 -1085 1086 0
-1086 1096 0
-93 -1086 1087 0
-1087 1097 0
-94 -1087 1088 0
-1088 1098 0
-95 -1088 1089 0
-1089 1099 0
-96 -1089 1090 0
-1090 1100 0
-97 -1090 0
-88 1091 0
-1091 1101 0
-89 -1091 1092 0
-1092 1102 0
-90 -1092 1093 0
-1093 1103 0
-91 -1093 1094 0
-1094 1104 0
-92 -1094 1095 0
-1095 1105 0
-93 -1095 1096 0
-1096 1106 0
-94 -1096 1097 0
-1097 1107 0
-95 -1097 1098 0
-1098 1108 0
-96 -1098 1099 0
-1099 1109 0
-97 -1099 1100 0
-1100 1110 0
-98 -1100 0
-89 1101 0
-1101 1111 0
-90 -1101 1102 0
-1102 1112 0
-91 -1102 1103 0
-1103 1113 0
-92 -1103 1104 0
-1104 1114 0
-93 -1104 1105 0
-1105 1115 0
-94 -1105 1106 0
-1106 1116 0
-95 -1106 1107 0
-1107 1117 0
-96 -1107 1108 0
-1108 1118 0
-97 -1108 1109 0
-1109 1119 0
-98 -1109 1110 0
-1110 1120 0
-99 -1110 0
-90 1111 0
-1111 1121 0
-91 -1111 1112 0
-1112 1122 0
-92 -1112 1113 0
-1113 1123 0
-93 -1113 1114 0
-1114 1124 0
-94 -1114 1115 0
-1115 1125 0
-95 -1115 1116 0
-1116 1126 0
-96 -1116 1117 0
-1117 1127 0
-97 -1117 1118 0
-1118 1128 0
-98 -1118 1119 0
-1119 1129 0
-99 -1119 1120 0
-1120 1130 0
-100 -1120 0
-91 1121 0
-1121 1131 0
-92 -1121 1122 0
-1122 1132 0
-93 -1122 1123 0
-1123 1133 0
-94 -1123 1124 0
-1124 1134 0
-95 -1124 1125 0
-1125 1135 0
-96 -1125 1126 0
-1126 1136 0
-97 -1126 1127 0
-1127 1137 0
-98 -1127 1128 0
-1128 1138 0
-99 -1128 1129 0
-1129 1139 0
-100 -1129 1130 0
-1130 1140 0
-101 -1130 0
-92 1131 0
-1131 1141 0
-93 -1131 1132 0
-1132 1142 0
-94 -1132 1133 0
-1133 1143 0
-95 -1133 1134 0
-1134 1144 0
-96 -1134 1135 0
-1135 1145 0
-97 -1135 1136 0
-1136 1146 0
-98 -1136 1137 0
-1137 1147 0
-99 -1137 1138 0
-1138 1148 0
-100 -1138 1139 0
-1139 1149 0
-101 -1139 1140 0
-1140 1150 0
-102 -1140 0
-93 1141 0
-1141 1151 0
-94 -1141 1142 0
-1142 1152 0
-95 -1142 1143 0
-1143 1153 0
-96 -1143 1144 0
-1144 1154 0
-97 -1144 1145 0
-1145 1155 0
-98 -1145 1146 0
-1146 1156 0
-99 -1146 1147 0
-1147 1157 0
-100 -1147 1148 0
-1148 1158 0
-101 -1148 1149 0
-1149 1159 0
-102 -1149 1150 0
-1150 1160 0
-103 -1150 0
-94 1151 0
-1151 1161 0
-95 -1151 1152 0
-1152 1162 0
-96 -1152 1153 0
-1153 1163 0
-97 -1153 1154 0
-1154 1164 0
-98 -1154 1155 0
-1155 1165 0
-99 -1155 1156 0
-1156 1166 0
-100 -1156 1157 0
-1157 1167 0
-101 -1157 1158 0
-1158 1168 0
-102 -1158 1159 0
-1159 1169 0
-103 -1159 1160 0
-1160 1170 0
-104 -1160 0
-95 1161 0
-1161 1171 0
-96 -1161 1162 0
-1162 1172 0
-97 -1162 1163 0
-1163 1173 0
-98 -1163 1164 0
-1164 1174 0
-99 -1164 1165 0
-1165 1175 0
-100 -1165 1166 0
-1166 1176 0
-101 -1166 1167 0
-1167 1177 0
-102 -1167 1168 0
-1168 1178 0
-103 -1168 1169 0
-1169 1179 0
-104 -1169 1170 0
-1170 1180 0
-105 -1170 0
-96 1171 0
-1171 1181 0
-97 -1171 1172 0
-1172 1182 0
-98 -1172 1173 0
-1173 1183 0
-99 -1173 1174 0
-1174 1184 0
-100 -1174 1175 0
-1175 1185 0
-101 -1175 1176 0
-1176 1186 0
-102 -1176 1177 0
-1177 1187 0
-103 -1177 1178 0
-1178 1188 0
-104 -1178 1179 0
-1179 1189 0
-105 -1179 1180 0
-1180 1190 0
-106 -1180 0
-97 1181 0
-1181 1191 0
-98 -1181 1182 0
-1182 1192 0
-99 -1182 1183 0
-1183 1193 0
-100 -1183 1184 0
-1184 1194 0
-101 -1184 1185 0
-1185 1195 0
-102 -1185 1186 0
-1186 1196 0
-103 -1186 1187 0
-1187 1197 0
-104 -1187 1188 0
-1188 1198 0
-105 -1188 1189 0
-1189 1199 0
-106 -1189 1190 0
-1190 1200 0
-107 -1190 0
-98 1191 0
-1191 1201 0
-99 -1191 1192 0
-1192 1202 0
-100 -1192 1193 0
-1193 1203 0
-101 -1193 1194 0
-1194 1204 0
-102 -1194 1195 0
-1195 1205 0
-103 -1195 1196 0
-1196 1206 0
-104 -1196 1197 0
-1197 1207 0
-105 -1197 1198 0
-1198 1208 0
-106 -1198 1199 0
-1199 1209 0
-107 -1199 1200 0
-1200 1210 0
-108 -1200 0
-99 1201 0
-1201 1211 0
-100 -1201 1202 0
-1202 1212 0
-101 -1202 1203 0
-1203 1213 0
-102 -1203 1204 0
-1204 1214 0
-103 -1204 1205 0
-1205 1215 0
-104 -1205 1206 0
-1206 1216 0
-105 -1206 1207 0
-1207 1217 0
-106 -1207 1208 0
-1208 1218 0
-107 -1208 1209 0
-1209 1219 0
-108 -1209 1210 0
-1210 1220 0
-109 -1210 0
-100 1211 0
-1211 1221 0
-101 -1211 1212 0
-1212 1222 0
-102 -1212 1213 0
-1213 1223 0
-103 -1213 1214 0
-1214 1224 0
-104 -1214 1215 0
-1215 1225 0
-105 -1215 1216 0
-1216 1226 0
-106 -1216 1217 0
-1217 1227 0
-107 -1217 1218 0
-1218 1228 0
-108 -1218 1219 0
-1219 1229 0
-109 -1219 1220 0
-1220 1230 0
-110 -1220 0
-101 1221 0
-1221 1231 0
-102 -1221 1222 0
-1222 1232 0
-103 -1222 1223 0
-1223 1233 0
-104 -1223 1224 0
-1224 1234 0
-105 -1224 1225 0
-1225 1235 0
-106 -1225 1226 0
-1226 1236 0
-107 -1226 1227 0
-1227 1237 0
-108 -1227 1228 0
-1228 1238 0
-109 -1228 1229 0
-1229 1239 0
-110 -1229 1230 0
-1230 1240 0
-111 -1230 0
-102 1231 0
-1231 1241 0
-103 -1231 1232 0
-1232 1242 0
-104 -1232 1233 0
-1233 1243 0
-105 -1233 1234 0
-1234 1244 0
-106 -1234 1235 0
-1235 1245 0
-107 -1235 1236 0
-1236 1246 0
-108 -1236 1237 0
-1237 1247 0
-109 -1237 1238 0
-1238 1248 0
-110 -1238 1239 0
-1239 1249 0
-111 -1239 1240 0
-1240 1250 0
-112 -1240 0
-103 1241 0
-1241 1251 0
-104 -1241 1242 0
-1242 1252 0
-105 -1242 1243 0
-1243 1253 0
-106 -1243 1244 0
-1244 1254 0
-107 -1244 1245 0
-1245 1255 0
-108 -1245 1246 0
-1246 1256 0
-109 -1246 1247 0
-1247 1257 0
-110 -1247 1248 0
-1248 1258 0
-111 -1248 1249 0
-1249 1259 0
-112 -1249 1250 0
-1250 1260 0
-113 -1250 0
-104 1251 0
-1251 1261 0
-105 -1251 1252 0
-1252 1262 0
-106 -1252 1253 0
-1253 1263 0
-107 -1253 1254 0
-1254 1264 0
-108 -1254 1255 0
-1255 1265 0
-109 -1255 1256 0
-1256 1266 0
-110 -1256 1257 0
-1257 1267 0
-111 -1257 1258 0
-1258 1268 0
-112 -1258 1259 0
-1259 1269 0
-113 -1259 1260 0
-1260 1270 0
-114 -1260 0
-105 1261 0
-1261 1271 0
-106 -1261 1262 0
-1262 1272 0
-107 -1262 1263 0
-1263 1273 0
-108 -1263 1264 0
-1264 1274 0
-109 -1264 1265 0
-1265 1275 0
-110 -1265 1266 0
-1266 1276 0
-111 -1266 1267 0
-1267 1277 0
-112 -1267 1268 0
-1268 1278 0
-113 -1268 1269 0
-1269 1279 0
-114 -1269 1270 0
-1270 1280 0
-115 -1270 0
-106 1271 0
-1271 1281 0
-107 -1271 1272 0
-1272 1282 0
-108 -1272 1273 0
-1273 1283 0
-109 -1273 1274 0
-1274 1284 0
-110 -1274 1275 0
-1275 1285 0
-111 -1275 1276 0
-1276 1286 0
-112 -1276 1277 0
-1277 1287 0
-113 -1277 1278 0
-1278 1288 0
-114 -1278 1279 0
-1279 1289 0
-115 -1279 1280 0
-1280 1290 0
-116 -1280 0
-107 1281 0
-1281 1291 0
-108 -1281 1282 0
-1282 1292 0
-109 -1282 1283 0
-1283 1293 0
-110 -1283 1284 0
-1284 1294 0
-111 -1284 1285 0
-1285 1295 0
-112 -1285 1286 0
-1286 1296 0
-113 -1286 1287 0
-1287 1297 0
-114 -1287 1288 0
-1288 1298 0
-115 -1288 1289 0
-1289 1299 0
-116 -1289 1290 0
-1290 1300 0
-117 -1290 0
-108 1291 0
-1291 1301 0
-109 -1291 1292 0
-1292 1302 0
-110 -1292 1293 0
-1293 1303 0
-111 -1293 1294 0
-1294 1304 0
-112 -1294 1295 0
-1295 1305 0
-113 -1295 1296 0
-1296 1306 0
-114 -1296 1297 0
-1297 1307 0
-115 -1297 1298 0
-1298 1308 0
-116 -1298 1299 0
-1299 1309 0
-117 -1299 1300 0
-1300 1310 0
-118 -1300 0
-109 1301 0
-1301 1311 0
-110 -1301 1302 0
-1302 1312 0
-111 -1302 1303 0
-1303 1313 0
-112 -1303 1304 0
-1304 1314 0
-113 -1304 1305 0
-1305 1315 0
-114 -1305 1306 0
-1306 1316 0
-115 -1306 1307 0
-1307 1317 0
-116 -1307 1308 0
-1308 1318 0
-117 -1308 1309 0
-1309 1319 0
-118 -1309 1310 0
-1310 1320 0
-119 -1310 0
-110 1311 0
-1311 1321 0
-111 -1311 1312 0
-1312 1322 0
-112 -1312 1313 0
-1313 1323 0
-113 -1313 1314 0
-1314 1324 0
-114 -1314 1315 0
-1315 1325 0
-115 -1315 1316 0
-1316 1326 0
-116 -1316 1317 0
-1317 1327 0
-117 -1317 1318 0
-1318 1328 0
-118 -1318 1319 0
-1319 1329 0
-119 -1319 1320 0
-1320 1330 0
-120 -1320 0
-111 1321 0
-1321 1331 0
-112 -1321 1322 0
-1322 1332 0
-113 -1322 1323 0
-1323 1333 0
-114 -1323 1324 0
-1324 1334 0
-115 -1324 1325 0
-1325 1335 0
-116 -1325 1326 0
-1326 1336 0
-117 -1326 1327 0
-1327 1337 0
-118 -1327 1328 0
-1328 1338 0
-119 -1328 1329 0
-1329 1339 0
-120 -1329 1330 0
-1330 1340 0
-121 -1330 0
-112 1331 0
-1331 1341 0
-113 -1331 1332 0
-1332 1342 0
-114 -1332 1333 0
-1333 1343 0
-115 -1333 1334 0
-1334 1344 0
-116 -1334 1335 0
-1335 1345 0
-117 -1335 1336 0
-1336 1346 0
-118 -1336 1337 0
-1337 1347 0
-119 -1337 1338 0
-1338 1348 0
-120 -1338 1339 0
-1339 1349 0
-121 -1339 1340 0
-1340 1350 0
-122 -1340 0
-113 1341 0
-1341 1351 0
-114 -1341 1342 0
-1342 1352 0
-115 -1342 1343 0
-1343 1353 0
-116 -1343 1344 0
-1344 1354 0
-117 -1344 1345 0
-1345 1355 0
-118 -1345 1346 0
-1346 1356 0
-119 -1346 1347 0
-1347 1357 0
-120 -1347 1348 0
-1348 1358 0
-121 -1348 1349 0
-1349 1359 0
-122 -1349 1350 0
-1350 1360 0
-123 -1350 0
-114 1351 0
-1351 1361 0
-115 -1351 1352 0
-1352 1362 0
-116 -1352 1353 0
-1353 1363 0
-117 -1353 1354 0
-1354 1364 0
-118 -1354 1355 0
-1355 1365 0
-119 -1355 1356 0
-1356 1366 0
-120 -1356 1357 0
-1357 1367 0
-121 -1357 1358 0
-1358 1368 0
-122 -1358 1359 0
-1359 1369 0
-123 -1359 1360 0
-1360 1370 0
-124 -1360 0
-115 1361 0
-1361 1371 0
-116 -1361 1362 0
-1362 1372 0
-117 -1362 1363 0
-1363 1373 0
-118 -1363 1364 0
-1364 1374 0
-119 -1364 1365 0
-1365 1375 0
-120 -1365 1366 0
-1366 1376 0
-121 -1366 1367 0
-1367 1377 0
-122 -1367 1368 0
-1368 1378 0
-123 -1368 1369 0
-1369 1379 0
-124 -1369 1370 0
-1370 1380 0
-125 -1370 0
-116 1371 0
-1371 1381 0
-117 -1371 1372 0
-1372 1382 0
-118 -1372 1373 0
-1373 1383 0
-119 -1373 1374 0
-1374 1384 0
-120 -1374 1375 0
-1375 1385 0
-121 -1375 1376 0
-1376 1386 0
-122 -1376 1377 0
-1377 1387 0
-123 -1377 1378 0
-1378 1388 0
-124 -1378 1379 0
-1379 1389 0
-125 -1379 1380 0
-1380 1390 0
-126 -1380 0
-117 1381 0
-1381 1391 0
-118 -1381 1382 0
-1382 1392 0
-119 -1382 1383 0
-1383 1393 0
-120 -1383 1384 0
-1384 1394 0
-121 -1384 1385 0
-1385 1395 0
-122 -1385 1386 0
-1386 1396 0
-123 -1386 1387 0
-1387 1397 0
-124 -1387 1388 0
-1388 1398 0
-125 -1388 1389 0
-1389 1399 0
-126 -1389 1390 0
-1390 1400 0
-127 -1390 0
-118 1391 0
-1391 1401 0
-119 -1391 1392 0
-1392 1402 0
-120 -1392 1393 0
-1393 1403 0
-121 -1393 1394 0
-1394 1404 0
-122 -1394 1395 0
-1395 1405 0
-123 -1395 1396 0
-1396 1406 0
-124 -1396 1397 0
-1397 1407 0
-125 -1397 1398 0
-1398 1408 0
-126 -1398 1399 0
-1399 1409 0
-127 -1399 1400 0
-1400 1410 0
-128 -1400 0
-119 1401 0
-1401 1411 0
-120 -1401 1402 0
-1402 1412 0
-121 -1402 1403 0
-1403 1413 0
-122 -1403 1404 0
-1404 1414 0
-123 -1404 1405 0
-1405 1415 0
-124 -1405 1406 0
-1406 1416 0
-125 -1406 1407 0
-1407 1417 0
-126 -1407 1408 0
-1408 1418 0
-127 -1408 1409 0
-1409 1419 0
-128 -1409 1410 0
-1410 1420 0
-129 -1410 0
-120 1411 0
-1411 1421 0
-121 -1411 1412 0
-1412 1422 0
-122 -1412 1413 0
-1413 1423 0
-123 -1413 1414 0
-1414 1424 0
-124 -1414 1415 0
-1415 1425 0
-125 -1415 1416 0
-1416 1426 0
-126 -1416 1417 0
-1417 1427 0
-127 -1417 1418 0
-1418 1428 0
-128 -1418 1419 0
-1419 1429 0
-129 -1419 1420 0
-1420 1430 0
-130 -1420 0
-121 1421 0
-1421 1431 0
-122 -1421 1422 0
-1422 1432 0
-123 -1422 1423 0
-1423 1433 0
-124 -1423 1424 0
-1424 1434 0
-125 -1424 1425 0
-1425 1435 0
-126 -1425 1426 0
-1426 1436 0
-127 -1426 1427 0
-1427 1437 0
-128 -1427 1428 0
-1428 1438 0
-129 -1428 1429 0
-1429 1439 0
-130 -1429 1430 0
-1430 1440 0
-131 -1430 0
-122 1431 0
-1431 1441 0
-123 -1431 1432 0
-1432 1442 0
-124 -1432 1433 0
-1433 1443 0
-125 -1433 1434 0
-1434 1444 0
-126 -1434 1435 0
-1435 1445 0
-127 -1435 1436 0
-1436 1446 0
-128 -1436 1437 0
-1437 1447 0
-129 -1437 1438 0
-1438 1448 0
-130 -1438 1439 0
-1439 1449 0
-131 -1439 1440 0
-1440 1450 0
-132 -1440 0
-123 1441 0
-1441 1451 0
-124 -1441 1442 0
-1442 1452 0
-125 -1442 1443 0
-1443 1453 0
-126 -1443 1444 0
-1444 1454 0
-127 -1444 1445 0
-1445 1455 0
-128 -1445 1446 0
-1446 1456 0
-129 -1446 1447 0
-1447 1457 0
-130 -1447 1448 0
-1448 1458 0
-131 -1448 1449 0
-1449 1459 0
-132 -1449 1450 0
-1450 1460 0
-133 -1450 0
-124 1451 0
-1451 1461 0
-125 -1451 1452 0
-1452 1462 0
-126 -1452 1453 0
-1453 1463 0
-127 -1453 1454 0
-1454 1464 0
-128 -1454 1455 0
-1455 1465 0
-129 -1455 1456 0
-1456 1466 0
-130 -1456 1457 0
-1457 1467 0
-131 -1457 1458 0
-1458 1468 0
-132 -1458 1459 0
-1459 1469 0
-133 -1459 1460 0
-1460 1470 0
-134 -1460 0
-125 1461 0
-1461 1471 0
-126 -1461 1462 0
-1462 1472 0
-127 -1462 1463 0
-1463 1473 0
-128 -1463 1464 0
-1464 1474 0
-129 -1464 1465 0
-1465 1475 0
-130 -1465 1466 0
-1466 1476 0
-131 -1466 1467 0
-1467 1477 0
-132 -1467 1468 0
-1468 1478 0
-133 -1468 1469 0
-1469 1479 0
-134 -1469 1470 0
-1470 1480 0
-135 -1470 0
-126 1471 0
-1471 1481 0
-127 -1471 1472 0
-1472 1482 0
-128 -1472 1473 0
-1473 1483 0
-129 -1473 1474 0
-1474 1484 0
-130 -1474 1475 0
-1475 1485 0
-131 -1475 1476 0
-1476 1486 0
-132 -1476 1477 0
-1477 1487 0
-133 -1477 1478 0
-1478 1488 0
-134 -1478 1479 0
-1479 1489 0
-135 -1479 1480 0
-1480 1490 0
-136 -1480 0
-127 1481 0
-1481 1491 0
-128 -1481 1482 0
-1482 1492 0
-129 -1482 1483 0
-1483 1493 0
-130 -1483 1484 0
-1484 1494 0
-131 -1484 1485 0
-1485 1495 0
-132 -1485 1486 0
-1486 1496 0
-133 -1486 1487 0
-1487 1497 0
-134 -1487 1488 0
-1488 1498 0
-135 -1488 1489 0
-1489 1499 0
-136 -1489 1490 0
-1490 1500 0
-137 -1490 0
-128 1491 0
-1491 1501 0
-129 -1491 1492 0
-1492 1502 0
-130 -1492 1493 0
-1493 1503 0
-131 -1493 1494 0
-1494 1504 0
-132 -1494 1495 0
-1495 1505 0
-133 -1495 1496 0
-1496 1506 0
-134 -1496 1497 0
-1497 1507 0
-135 -1497 1498 0
-1498 1508 0
-136 -1498 1499 0
-1499 1509 0
-137 -1499 1500 0
-1500 1510 0
-138 -1500 0
-129 1501 0
-1501 1511 0
-130 -1501 1502 0
-1502 1512 0
-131 -1502 1503 0
-1503 1513 0
-132 -1503 1504 0
-1504 1514 0
-133 -1504 1505 0
-1505 1515 0
-134 -1505 1506 0
-1506 1516 0
-135 -1506 1507 0
-1507 1517 0
-136 -1507 1508 0
-1508 1518 0
-137 -1508 1509 0
-1509 1519 0
-138 -1509 1510 0
-1510 1520 0
-139 -1510 0
-130 1511 0
-1511 1521 0
-131 -1511 1512 0
-1512 1522 0
-132 -1512 1513 0
-1513 1523 0
-133 -1513 1514 0
-1514 1524 0
-134 -1514 1515 0
-1515 1525 0
-135 -1515 1516 0
-1516 1526 0
-136 -1516 1517 0
-1517 1527 0
-137 -1517 1518 0
-1518 1528 0
-138 -1518 1519 0
-1519 1529 0
-139 -1519 1520 0
-1520 1530 0
-140 -1520 0
-131 1521 0
-1521 1531 0
-132 -1521 1522 0
-1522 1532 0
-133 -1522 1523 0
-1523 1533 0
-134 -1523 1524 0
-1524 1534 0
-135 -1524 1525 0
-1525 1535 0
-136 -1525 1526 0
-1526 1536 0
-137 -1526 1527 0
-1527 1537 0
-138 -1527 1528 0
-1528 1538 0
-139 -1528 1529 0
-1529 1539 0
-140 -1529 1530 0
-1530 1540 0
-141 -1530 0
-132 1531 0
-1531 1541 0
-133 -1531 1532 0
-1532 1542 0
-134 -1532 1533 0
-1533 1543 0
-135 -1533 1534 0
-1534 1544 0
-136 -1534 1535 0
-1535 1545 0
-137 -1535 1536 0
-1536 1546 0
-138 -1536 1537 0
-1537 1547 0
-139 -1537 1538 0
-1538 1548 0
-140 -1538 1539 0
-1539 1549 0
-141 -1539 1540 0
-1540 1550 0
-142 -1540 0
-133 1541 0
-1541 1551 0
-134 -1541 1542 0
-1542 1552 0
-135 -1542 1543 0
-1543 1553 0
-136 -1543 1544 0
-1544 1554 0
-137 -1544 1545 0
-1545 1555 0
-138 -1545 1546 0
-1546 1556 0
-139 -1546 1547 0
-1547 1557 0
-140 -1547 1548 0
-1548 1558 0
-141 -1548 1549 0
-1549 1559 0
-142 -1549 1550 0
-1550 1560 0
-143 -1550 0
-134 1551 0
-1551 1561 0
-135 -1551 1552 0
-1552 1562 0
-136 -1552 1553 0
-1553 1563 0
-137 -1553 1554 0
-1554 1564 0
-138 -1554 1555 0
-1555 1565 0
-139 -1555 1556 0
-1556 1566 0
-140 -1556 1557 0
-1557 1567 0
-141 -1557 1558 0
-1558 1568 0
-142 -1558 1559 0
-1559 1569 0
-143 -1559 1560 0
-1560 1570 0
-144 -1560 0
-135 1561 0
-1561 1571 0
-136 -1561 1562 0
-1562 1572 0
-137 -1562 1563 0
-1563 1573 0
-138 -1563 1564 0
-1564 1574 0
-139 -1564 1565 0
-1565 1575 0
-140 -1565 1566 0
-1566 1576 0
-141 -1566 1567 0
-1567 1577 0
-142 -1567 1568 0
-1568 1578 0
-143 -1568 1569 0
-1569 1579 0
-144 -1569 1570 0
-1570 1580 0
-145 -1570 0
-136 1571 0
-1571 1581 0
-137 -1571 1572 0
-1572 1582 0
-138 -1572 1573 0
-1573 1583 0
-139 -1573 1574 0
-1574 1584 0
-140 -1574 1575 0
-1575 1585 0
-141 -1575 1576 0
-1576 1586 0
-142 -1576 1577 0
-1577 1587 0
-143 -1577 1578 0
-1578 1588 0
-144 -1578 1579 0
-1579 1589 0
-145 -1579 1580 0
-1580 1590 0
-146 -1580 0
-137 1581 0
-1581 1591 0
-138 -1581 1582 0
-1582 1592 0
-139 -1582 1583 0
-1583 1593 0
-140 -1583 1584 0
-1584 1594 0
-141 -1584 1585 0
-1585 1595 0
-142 -1585 1586 0
-1586 1596 0
-143 -1586 1587 0
-1587 1597 0
-144 -1587 1588 0
-1588 1598 0
-145 -1588 1589 0
-1589 1599 0
-146 -1589 1590 0
-1590 1600 0
-147 -1590 0
-138 1591 0
-1591 1601 0
-139 -1591 1592 0
-1592 1602 0
-140 -1592 1593 0
-1593 1603 0
-141 -1593 1594 0
-1594 1604 0
-142 -1594 1595 0
-1595 1605 0
-143 -1595 1596 0
-1596 1606 0
-144 -1596 1597 0
-1597 1607 0
-145 -1597 1598 0
-1598 1608 0
-146 -1598 1599 0
-1599 1609 0
-147 -1599 1600 0
-1600 1610 0
-148 -1600 0
-139 1601 0
-1601 1611 0
-140 -1601 1602 0
-1602 1612 0
-141 -1602 1603 0
-1603 1613 0
-142 -1603 1604 0
-1604 1614 0
-143 -1604 1605 0
-1605 1615 0
-144 -1605 1606 0
-1606 1616 0
-145 -1606 1607 0
-1607 1617 0
-146 -1607 1608 0
-1608 1618 0
-147 -1608 1609 0
-1609 1619 0
-148 -1609 1610 0
-1610 1620 0
-149 -1610 0
-140 1611 0
-1611 1621 0
-141 -1611 1612 0
-1612 1622 0
-142 -1612 1613 0
-1613 1623 0
-143 -1613 1614 0
-1614 1624 0
-144 -1614 1615 0
-1615 1625 0
-145 -1615 1616 0
-1616 1626 0
-146 -1616 1617 0
-1617 1627 0
-147 -1617 1618 0
-1618 1628 0
-148 -1618 1619 0
-1619 1629 0
-149 -1619 1620 0
-1620 1630 0
-150 -1620 0
-141 1621 0
-1621 1631 0
-142 -1621 1622 0
-1622 1632 0
-143 -1622 1623 0
-1623 1633 0
-144 -1623 1624 0
-1624 1634 0
-145 -1624 1625 0
-1625 1635 0
-146 -1625 1626 0
-1626 1636 0
-147 -1626 1627 0
-1627 1637 0
-148 -1627 1628 0
-1628 1638 0
-149 -1628 1629 0
-1629 1639 0
-150 -1629 1630 0
-1630 1640 0
-151 -1630 0
-142 1631 0
-1631 1641 0
-143 -1631 1632 0
-1632 1642 0
-144 -1632 1633 0
-1633 1643 0
-145 -1633 1634 0
-1634 1644 0
-146 -1634 1635 0
-1635 1645 0
-147 -1635 1636 0
-1636 1646 0
-148 -1636 1637 0
-1637 1647 0
-149 -1637 1638 0
-1638 1648 0
-150 -1638 1639 0
-1639 1649 0
-151 -1639 1640 0
-1640 1650 0
-152 -1640 0
-143 1641 0
-1641 1651 0
-144 -1641 1642 0
-1642 1652 0
-145 -1642 1643 0
-1643 1653 0
-146 -1643 1644 0
-1644 1654 0
-147 -1644 1645 0
-1645 1655 0
-148 -1645 1646 0
-1646 1656 0
-149 -1646 1647 0
-1647 1657 0
-150 -1647 1648 0
-1648 1658 0
-151 -1648 1649 0
-1649 1659 0
-152 -1649 1650 0
-1650 1660 0
-153 -1650 0
-144 1651 0
-1651 1661 0
-145 -1651 1652 0
-1652 1662 0
-146 -1652 1653 0
-1653 1663 0
-147 -1653 1654 0
-1654 1664 0
-148 -1654 1655 0
-1655 1665 0
-149 -1655 1656 0
-1656 1666 0
-150 -1656 1657 0
-1657 1667 0
-151 -1657 1658 0
-1658 1668 0
-152 -1658 1659 0
-1659 1669 0
-153 -1659 1660 0
-1660 1670 0
-154 -1660 0
-145 1661 0
-1661 1671 0
-146 -1661 1662 0
-1662 1672 0
-147 -1662 1663 0
-1663 1673 0
-148 -1663 1664 0
-1664 1674 0
-149 -1664 1665 0
-1665 1675 0
-150 -1665 1666 0
-1666 1676 0
-151 -1666 1667 0
-1667 1677 0
-152 -1667 1668 0
-1668 1678 0
-153 -1668 1669 0
-1669 1679 0
-154 -1669 1670 0
-1670 1680 0
-155 -1670 0
-146 1671 0
-1671 1681 0
-147 -1671 1672 0
-1672 1682 0
-148 -1672 1673 0
-1673 1683 0
-149 -1673 1674 0
-1674 1684 0
-150 -1674 1675 0
-1675 1685 0
-151 -1675 1676 0
-1676 1686 0
-152 -1676 1677 0
-1677 1687 0
-153 -1677 1678 0
-1678 1688 0
-154 -1678 1679 0
-1679 1689 0
-155 -1679 1680 0
-1680 1690 0
-156 -1680 0
-147 1681 0
-1681 1691 0
-148 -1681 1682 0
-1682 1692 0
-149 -1682 1683 0
-1683 1693 0
-150 -1683 1684 0
-1684 1694 0
-151 -1684 1685 0
-1685 1695 0
-152 -1685 1686 0
-1686 1696 0
-153 -1686 1687 0
-1687 1697 0
-154 -1687 1688 0
-1688 1698 0
-155 -1688 1689 0
-1689 1699 0
-156 -1689 1690 0
-1690 1700 0
-157 -1690 0
-148 1691 0
-1691 1701 0
-149 -1691 1692 0
-1692 1702 0
-150 -1692 1693 0
-1693 1703 0
-151 -1693 1694 0
-1694 1704 0
-152 -1694 1695 0
-1695 1705 0
-153 -1695 1696 0
-1696 1706 0
-154 -1696 1697 0
-1697 1707 0
-155 -1697 1698 0
-1698 1708 0
-156 -1698 1699 0
-1699 1709 0
-157 -1699 1700 0
-1700 1710 0
-158 -1700 0
-149 1701 0
-1701 1711 0
-150 -1701 1702 0
-1702 1712 0
-151 -1702 1703 0
-1703 1713 0
-152 -1703 1704 0
-1704 1714 0
-153 -1704 1705 0
-1705 1715 0
-154 -1705 1706 0
-1706 1716 0
-155 -1706 1707 0
-1707 1717 0
-156 -1707 1708 0
-1708 1718 0
-157 -1708 1709 0
-1709 1719 0
-158 -1709 1710 0
-1710 1720 0
-159 -1710 0
-150 1711 0
-1711 1721 0
-151 -1711 1712 0
-1712 1722 0
-152 -1712 1713 0
-1713 1723 0
-153 -1713 1714 0
-1714 1724 0
-154 -1714 1715 0
-1715 1725 0
-155 -1715 1716 0
-1716 1726 0
-156 -1716 1717 0
-1717 1727 0
-157 -1717 1718 0
-1718 1728 0
-158 -1718 1719 0
-1719 1729 0
-159 -1719 1720 0
-1720 1730 0
-160 -1720 0
-151 1721 0
-1721 1731 0
-152 -1721 1722 0
-1722 1732 0
-153 -1722 1723 0
-1723 1733 0
-154 -1723 1724 0
-1724 1734 0
-155 -1724 1725 0
-1725 1735 0
-156 -1725 1726 0
-1726 1736 0
-157 -1726 1727 0
-1727 1737 0
-158 -1727 1728 0
-1728 1738 0
-159 -1728 1729 0
-1729 1739 0
-160 -1729 1730 0
-1730 1740 0
-161 -1730 0
-152 1731 0
-1731 1741 0
-153 -1731 1732 0
-1732 1742 0
-154 -1732 1733 0
-1733 1743 0
-155 -1733 1734 0
-1734 1744 0
-156 -1734 1735 0
-1735 1745 0
-157 -1735 1736 0
-1736 1746 0
-158 -1736 1737 0
-1737 1747 0
-159 -1737 1738 0
-1738 1748 0
-160 -1738 1739 0
-1739 1749 0
-161 -1739 1740 0
-1740 1750 0
-162 -1740 0
-153 1741 0
-1741 1751 0
-154 -1741 1742 0
-1742 1752 0
-155 -1742 1743 0
-1743 1753 0
-156 -1743 1744 0
-1744 1754 0
-157 -1744 1745 0
-1745 1755 0
-158 -1745 1746 0
-1746 1756 0
-159 -1746 1747 0
-1747 1757 0
-160 -1747 1748 0
-1748 1758 0
-161 -1748 1749 0
-1749 1759 0
-162 -1749 1750 0
-1750 1760 0
-163 -1750 0
-154 1751 0
-1751 1761 0
-155 -1751 1752 0
-1752 1762 0
-156 -1752 1753 0
-1753 1763 0
-157 -1753 1754 0
-1754 1764 0
-158 -1754 1755 0
-1755 1765 0
-159 -1755 1756 0
-1756 1766 0
-160 -1756 1757 0
-1757 1767 0
-161 -1757 1758 0
-1758 1768 0
-162 -1758 1759 0
-1759 1769 0
-163 -1759 1760 0
-1760 1770 0
-164 -1760 0
-155 1761 0
-1761 1771 0
-156 -1761 1762 0
-1762 1772 0
-157 -1762 1763 0
-1763 1773 0
-158 -1763 1764 0
-1764 1774 0
-159 -1764 1765 0
-1765 1775 0
-160 -1765 1766 0
-1766 1776 0
-161 -1766 1767 0
-1767 1777 0
-162 -1767 1768 0
-1768 1778 0
-163 -1768 1769 0
-1769 1779 0
-164 -1769 1770 0
-1770 1780 0
-165 -1770 0
-156 1771 0
-1771 1781 0
-157 -1771 1772 0
-1772 1782 0
-158 -1772 1773 0
-1773 1783 0
-159 -1773 1774 0
-1774 1784 0
-160 -1774 1775 0
-1775 1785 0
-161 -1775 1776 0
-1776 1786 0
-162 -1776 1777 0
-1777 1787 0
-163 -1777 1778 0
-1778 1788 0
-164 -1778 1779 0
-1779 1789 0
-165 -1779 1780 0
-1780 1790 0
-166 -1780 0
-157 1781 0
-1781 1791 0
-158 -1781 1782 0
-1782 1792 0
-159 -1782 1783 0
-1783 1793 0
-160 -1783 1784 0
-1784 1794 0
-161 -1784 1785 0
-1785 1795 0
-162 -1785 1786 0
-1786 1796 0
-163 -1786 1787 0
-1787 1797 0
-164 -1787 1788 0
-1788 1798 0
-165 -1788 1789 0
-1789 1799 0
-166 -1789 1790 0
-1790 1800 0
-167 -1790 0
-158 1791 0
-1791 1801 0
-159 -1791 1792 0
-1792 1802 0
-160 -1792 1793 0
-1793 1803 0
-161 -1793 1794 0
-1794 1804 0
-162 -1794 1795 0
-1795 1805 0
-163 -1795 1796 0
-1796 1806 0
-164 -1796 1797 0
-1797 1807 0
-165 -1797 1798 0
-1798 1808 0
-166 -1798 1799 0
-1799 1809 0
-167 -1799 1800 0
-1800 1810 0
-168 -1800 0
-159 1801 0
-1801 1811 0
-160 -1801 1802 0
-1802 1812 0
-161 -1802 1803 0
-1803 1813 0
-162 -1803 1804 0
-1804 1814 0
-163 -1804 1805 0
-1805 1815 0
-164 -1805 1806 0
-1806 1816 0
-165 -1806 1807 0
-1807 1817 0
-166 -1807 1808 0
-1808 1818 0
-167 -1808 1809 0
-1809 1819 0
-168 -1809 1810 0
-1810 1820 0
-169 -1810 0
-160 1811 0
-1811 1821 0
-161 -1811 1812 0
-1812 1822 0
-162 -1812 1813 0
-1813 1823 0
-163 -1813 1814 0
-1814 1824 0
-164 -1814 1815 0
-1815 1825 0
-165 -1815 1816 0
-1816 1826 0
-166 -1816 1817 0
-1817 1827 0
-167 -1817 1818 0
-1818 1828 0
-168 -1818 1819 0
-1819 1829 0
-169 -1819 1820 0
-1820 1830 0
-170 -1820 0
-161 1821 0
-1821 1831 0
-162 -1821 1822 0
-1822 1832 0
-163 -1822 1823 0
-1823 1833 0
-164 -1823 1824 0
-1824 1834 0
-165 -1824 1825 0
-1825 1835 0
-166 -1825 1826 0
-1826 1836 0
-167 -1826 1827 0
-1827 1837 0
-168 -1827 1828 0
-1828 1838 0
-169 -1828 1829 0
-1829 1839 0
-170 -1829 1830 0
-1830 1840 0
-171 -1830 0
-162 1831 0
-1831 1841 0
-163 -1831 1832 0
-1832 1842 0
-164 -1832 1833 0
-1833 1843 0
-165 -1833 1834 0
-1834 1844 0
-166 -1834 1835 0
-1835 1845 0
-167 -1835 1836 0
-1836 1846 0
-168 -1836 1837 0
-1837 1847 0
-169 -1837 1838 0
-1838 1848 0
-170 -1838 1839 0
-1839 1849 0
-171 -1839 1840 0
-1840 1850 0
-172 -1840 0
-163 1841 0
-1841 1851 0
-164 -1841 1842 0
-1842 1852 0
-165 -1842 1843 0
-1843 1853 0
-166 -1843 1844 0
-1844 1854 0
-167 -1844 1845 0
-1845 1855 0
-168 -1845 1846 0
-1846 1856 0
-169 -1846 1847 0
-1847 1857 0
-170 -1847 1848 0
-1848 1858 0
-171 -1848 1849 0
-1849 1859 0
-172 -1849 1850 0
-1850 1860 0
-173 -1850 0
-164 1851 0
-1851 1861 0
-165 -1851 1852 0
-1852 1862 0
-166 -1852 1853 0
-1853 1863 0
-167 -1853 1854 0
-1854 1864 0
-168 -1854 1855 0
-1855 1865 0
-169 -1855 1856 0
-1856 1866 0
-170 -1856 1857 0
-1857 1867 0
-171 -1857 1858 0
-1858 1868 0
-172 -1858 1859 0
-1859 1869 0
-173 -1859 1860 0
-1860 1870 0
-174 -1860 0
-165 1861 0
-1861 1871 0
-166 -1861 1862 0
-1862 1872 0
-167 -1862 1863 0
-1863 1873 0
-168 -1863 1864 0
-1864 1874 0
-169 -1864 1865 0
-1865 1875 0
-170 -1865 1866 0
-1866 1876 0
-171 -1866 1867 0
-1867 1877 0
-172 -1867 1868 0
-1868 1878 0
-173 -1868 1869 0
-1869 1879 0
-174 -1869 1870 0
-1870 1880 0
-175 -1870 0
-166 1871 0
-1871 1881 0
-167 -1871 1872 0
-1872 1882 0
-168 -1872 1873 0
-1873 1883 0
-169 -1873 1874 0
-1874 1884 0
-170 -1874 1875 0
-1875 1885 0
-171 -1875 1876 0
-1876 1886 0
-172 -1876 1877 0
-1877 1887 0
-173 -1877 1878 0
-1878 1888 0
-174 -1878 1879 0
-1879 1889 0
-175 -1879 1880 0
-1880 1890 0
-176 -1880 0
-167 1881 0
-1881 1891 0
-168 -1881 1882 0
-1882 1892 0
-169 -1882 1883 0
-1883 1893 0
-170 -1883 1884 0
-1884 1894 0
-171 -1884 1885 0
-1885 1895 0
-172 -1885 1886 0
-1886 1896 0
-173 -1886 1887 0
-1887 1897 0
-174 -1887 1888 0
-1888 1898 0
-175 -1888 1889 0
-1889 1899 0
-176 -1889 1890 0
-1890 1900 0
-177 -1890 0
-168 1891 0
-1891 1901 0
-169 -1891 1892 0
-1892 1902 0
-170 -1892 1893 0
-1893 1903 0
-171 -1893 1894 0
-1894 1904 0
-172 -1894 1895 0
-1895 1905 0
-173 -1895 1896 0
-1896 1906 0
-174 -1896 1897 0
-1897 1907 0
-175 -1897 1898 0
-1898 1908 0
-176 -1898 1899 0
-1899 1909 0
-177 -1899 1900 0
-1900 1910 0
-178 -1900 0
-169 1901 0
-1901 1911 0
-170 -1901 1902 0
-1902 1912 0
-171 -1902 1903 0
-1903 1913 0
-172 -1903 1904 0
-1904 1914 0
-173 -1904 1905 0
-1905 1915 0
-174 -1905 1906 0
-1906 1916 0
-175 -1906 1907 0
-1907 1917 0
-176 -1907 1908 0
-1908 1918 0
-177 -1908 1909 0
-1909 1919 0
-178 -1909 1910 0
-1910 1920 0
-179 -1910 0
-170 1911 0
-1911 1921 0
-171 -1911 1912 0
-1912 1922 0
-172 -1912 1913 0
-1913 1923 0
-173 -1913 1914 0
-1914 1924 0
-174 -1914 1915 0
-1915 1925 0
-175 -1915 1916 0
-1916 1926 0
-176 -1916 1917 0
-1917 1927 0
-177 -1917 1918 0
-1918 1928 0
-178 -1918 1919 0
-1919 1929 0
-179 -1919 1920 0
-1920 1930 0
-180 -1920 0
-171 1921 0
-1921 1931 0
-172 -1921 1922 0
-1922 1932 0
-173 -1922 1923 0
-1923 1933 0
-174 -1923 1924 0
-1924 1934 0
-175 -1924 1925 0
-1925 1935 0
-176 -1925 1926 0
-1926 1936 0
-177 -1926 1927 0
-1927 1937 0
-178 -1927 1928 0
-1928 1938 0
-179 -1928 1929 0
-1929 1939 0
-180 -1929 1930 0
-1930 1940 0
-181 -1930 0
-172 1931 0
-1931 1941 0
-173 -1931 1932 0
-1932 1942 0
-174 -1932 1933 0
-1933 1943 0
-175 -1933 1934 0
-1934 1944 0
-176 -1934 1935 0
-1935 1945 0
-177 -1935 1936 0
-1936 1946 0
-178 -1936 1937 0
-1937 1947 0
-179 -1937 1938 0
-1938 1948 0
-180 -1938 1939 0
-1939 1949 0
-181 -1939 1940 0
-1940 1950 0
-182 -1940 0
-173 1941 0
-1941 1951 0
-174 -1941 1942 0
-1942 1952 0
-175 -1942 1943 0
-1943 1953 0
-176 -1943 1944 0
-1944 1954 0
-177 -1944 1945 0
-1945 1955 0
-178 -1945 1946 0
-1946 1956 0
-179 -1946 1947 0
-1947 1957 0
-180 -1947 1948 0
-1948 1958 0
-181 -1948 1949 0
-1949 1959 0
-182 -1949 1950 0
-1950 1960 0
-183 -1950 0
-174 1951 0
-1951 1961 0
-175 -1951 1952 0
-1952 1962 0
-176 -1952 1953 0
-1953 1963 0
-177 -1953 1954 0
-1954 1964 0
-178 -1954 1955 0
-1955 1965 0
-179 -1955 1956 0
-1956 1966 0
-180 -1956 1957 0
-1957 1967 0
-181 -1957 1958 0
-1958 1968 0
-182 -1958 1959 0
-1959 1969 0
-183 -1959 1960 0
-1960 1970 0
-184 -1960 0
-175 1961 0
-1961 1971 0
-176 -1961 1962 0
-1962 1972 0
-177 -1962 1963 0
-1963 1973 0
-178 -1963 1964 0
-1964 1974 0
-179 -1964 1965 0
-1965 1975 0
-180 -1965 1966 0
-1966 1976 0
-181 -1966 1967 0
-1967 1977 0
-182 -1967 1968 0
-1968 1978 0
-183 -1968 1969 0
-1969 1979 0
-184 -1969 1970 0
-1970 1980 0
-185 -1970 0
-176 1971 0
-1971 1981 0
-177 -1971 1972 0
-1972 1982 0
-178 -1972 1973 0
-1973 1983 0
-179 -1973 1974 0
-1974 1984 0
-180 -1974 1975 0
-1975 1985 0
-181 -1975 1976 0
-1976 1986 0
-182 -1976 1977 0
-1977 1987 0
-183 -1977 1978 0
-1978 1988 0
-184 -1978 1979 0
-1979 1989 0
-185 -1979 1980 0
-1980 1990 0
-186 -1980 0
-177 1981 0
-1981 1991 0
-178 -1981 1982 0
-1982 1992 0
-179 -1982 1983 0
-1983 1993 0
-180 -1983 1984 0
-1984 1994 0
-181 -1984 1985 0
-1985 1995 0
-182 -1985 1986 0
-1986 1996 0
-183 -1986 1987 0
-1987 1997 0
-184 -1987 1988 0
-1988 1998 0
-185 -1988 1989 0
-1989 1999 0
-186 -1989 1990 0
-1990 2000 0
-187 -1990 0
-178 1991 0
-1991 2001 0
-179 -1991 1992 0
-1992 2002 0
-180 -1992 1993 0
-1993 2003 0
-181 -1993 1994 0
-1994 2004 0
-182 -1994 1995 0
-1995 2005 0
-183 -1995 1996 0
-1996 2006 0
-184 -1996 1997 0
-1997 2007 0
-185 -1997 1998 0
-1998 2008 0
-186 -1998 1999 0
-1999 2009 0
-187 -1999 2000 0
-2000 2010 0
-188 -2000 0
-179 2001 0
-2001 2011 0
-180 -2001 2002 0
-2002 2012 0
-181 -2002 2003 0
-2003 2013 0
-182 -2003 2004 0
-2004 2014 0
-183 -2004 2005 0
-2005 2015 0
-184 -2005 2006 0
-2006 2016 0
-185 -2006 2007 0
-2007 2017 0
-186 -2007 2008 0
-2008 2018 0
-187 -2008 2009 0
-2009 2019 0
-188 -2009 2010 0
-2010 2020 0
-189 -2010 0
-180 2011 0
-2011 2021 0
-181 -2011 2012 0
-2012 2022 0
-182 -2012 2013 0
-2013 2023 0
-183 -2013 2014 0
-2014 2024 0
-184 -2014 2015 0
-2015 2025 0
-185 -2015 2016 0
-2016 2026 0
-186 -2016 2017 0
-2017 2027 0
-187 -2017 2018 0
-2018 2028 0
-188 -2018 2019 0
-2019 2029 0
-189 -2019 2020 0
-2020 2030 0
-190 -2020 0
-181 2021 0
-2021 2031 0
-182 -2021 2022 0
-2022 2032 0
-183 -2022 2023 0
-2023 2033 0
-184 -2023 2024 0
-2024 2034 0
-185 -2024 2025 0
-2025 2035 0
-186 -2025 2026 0
-2026 2036 0
-187 -2026 2027 0
-2027 2037 0
-188 -2027 2028 0
-2028 2038 0
-189 -2028 2029 0
-2029 2039 0
-190 -2029 2030 0
-2030 2040 0
-191 -2030 0
-182 2031 0
-2031 2041 0
-183 -2031 2032 0
-2032 2042 0
-184 -2032 2033 0
-2033 2043 0
-185 -2033 2034 0
-2034 2044 0
-186 -2034 2035 0
-2035 2045 0
-187 -2035 2036 0
-2036 2046 0
-188 -2036 2037 0
-2037 2047 0
-189 -2037 2038 0
-2038 2048 0
-190 -2038 2039 0
-2039 2049 0
-191 -2039 2040 0
-2040 2050 0
-192 -2040 0
-183 2041 0
-2041 2051 0
-184 -2041 2042 0
-2042 2052 0
-185 -2042 2043 0
-2043 2053 0
-186 -2043 2044 0
-2044 2054 0
-187 -2044 2045 0
-2045 2055 0
-188 -2045 2046 0
-2046 2056 0
-189 -2046 2047 0
-2047 2057 0
-190 -2047 2048 0
-2048 2058 0
-191 -2048 2049 0
-2049 2059 0
-192 -2049 2050 0
-2050 2060 0
-193 -2050 0
-184 2051 0
-2051 2061 0
-185 -2051 2052 0
-2052 2062 0
-186 -2052 2053 0
-2053 2063 0
-187 -2053 2054 0
-2054 2064 0
-188 -2054 2055 0
-2055 2065 0
-189 -2055 2056 0
-2056 2066 0
-190 -2056 2057 0
-2057 2067 0
-191 -2057 2058 0
-2058 2068 0
-192 -2058 2059 0
-2059 2069 0
-193 -2059 2060 0
-2060 2070 0
-194 -2060 0
-185 2061 0
-2061 2071 0
-186 -2061 2062 0
-2062 2072 0
-187 -2062 2063 0
-2063 2073 0
-188 -2063 2064 0
-2064 2074 0
-189 -2064 2065 0
-2065 2075 0
-190 -2065 2066 0
-2066 2076 0
-191 -2066 2067 0
-2067 2077 0
-192 -2067 2068 0
-2068 2078 0
-193 -2068 2069 0
-2069 2079 0
-194 -2069 2070 0
-2070 2080 0
-195 -2070 0
-186 2071 0
-2071 2081 0
-187 -2071 2072 0
-2072 2082 0
-188 -2072 2073 0
-2073 2083 0
-189 -2073 2074 0
-2074 2084 0
-190 -2074 2075 0
-2075 2085 0
-191 -2075 2076 0
-2076 2086 0
-192 -2076 2077 0
-2077 2087 0
-193 -2077 2078 0
-2078 2088 0
-194 -2078 2079 0
-2079 2089 0
-195 -2079 2080 0
-2080 2090 0
-196 -2080 0
-187 2081 0
-2081 2091 0
-188 -2081 2082 0
-2082 2092 0
-189 -2082 2083 0
-2083 2093 0
-190 -2083 2084 0
-2084 2094 0
-191 -2084 2085 0
-2085 2095 0
-192 -2085 2086 0
-2086 2096 0
-193 -2086 2087 0
-2087 2097 0
-194 -2087 2088 0
-2088 2098 0
-195 -2088 2089 0
-2089 2099 0
-196 -2089 2090 0
-2090 2100 0
-197 -2090 0
-188 2091 0
-2091 2101 0
-189 -2091 2092 0
-2092 2102 0
-190 -2092 2093 0
-2093 2103 0
-191 -2093 2094 0
-2094 2104 0
-192 -2094 2095 0
-2095 2105 0
-193 -2095 2096 0
-2096 2106 0
-194 -2096 2097 0
-2097 2107 0
-195 -2097 2098 0
-2098 2108 0
-196 -2098 2099 0
-2099 2109 0
-197 -2099 2100 0
-2100 2110 0
-198 -2100 0
-189 2101 0
-2101 2111 0
-190 -2101 2102 0
-2102 2112 0
-191 -2102 2103 0
-2103 2113 0
-192 -2103 2104 0
-2104 2114 0
-193 -2104 2105 0
-2105 2115 0
-194 -2105 2106 0
-2106 2116 0
-195 -2106 2107 0
-2107 2117 0
-196 -2107 2108 0
-2108 2118 0
-197 -2108 2109 0
-2109 2119 0
-198 -2109 2110 0
-2110 2120 0
-199 -2110 0
-190 2111 0
-2111 2121 0
-191 -2111 2112 0
-2112 2122 0
-192 -2112 2113 0
-2113 2123 0
-193 -2113 2114 0
-2114 2124 0
-194 -2114 2115 0
-2115 2125 0
-195 -2115 2116 0
-2116 2126 0
-196 -2116 2117 0
-2117 2127 0
-197 -2117 2118 0
-2118 2128 0
-198 -2118 2119 0
-2119 2129 0
-199 -2119 2120 0
-2120 2130 0
-200 -2120 0
-191 2121 0
-2121 2131 0
-192 -2121 2122 0
-2122 2132 0
-193 -2122 2123 0
-2123 2133 0
-194 -2123 2124 0
-2124 2134 0
-195 -2124 2125 0
-2125 2135 0
-196 -2125 2126 0
-2126 2136 0
-197 -2126 2127 0
-2127 2137 0
-198 -2127 2128 0
-2128 2138 0
-199 -2128 2129 0
-2129 2139 0
-200 -2129 2130 0
-2130 2140 0
-201 -2130 0
-192 2131 0
-2131 2141 0
-193 -2131 2132 0
-2132 2142 0
-194 -2132 2133 0
-2133 2143 0
-195 -2133 2134 0
-2134 2144 0
-196 -2134 2135 0
-2135 2145 0
-197 -2135 2136 0
-2136 2146 0
-198 -2136 2137 0
-2137 2147 0
-199 -2137 2138 0
-2138 2148 0
-200 -2138 2139 0
-2139 2149 0
-201 -2139 2140 0
-2140 2150 0
-202 -2140 0
-193 2141 0
-2141 2151 0
-194 -2141 2142 0
-2142 2152 0
-195 -2142 2143 0
-2143 2153 0
-196 -2143 2144 0
-2144 2154 0
-197 -2144 2145 0
-2145 2155 0
-198 -2145 2146 0
-2146 2156 0
-199 -2146 2147 0
-2147 2157 0
-200 -2147 2148 0
-2148 2158 0
-201 -2148 2149 0
-2149 2159 0
-202 -2149 2150 0
-2150 2160 0
-203 -2150 0
-194 2151 0
-2151 2161 0
-195 -2151 2152 0
-2152 2162 0
-196 -2152 2153 0
-2153 2163 0
-197 -2153 2154 0
-2154 2164 0
-198 -2154 2155 0
-2155 2165 0
-199 -2155 2156 0
-2156 2166 0
-200 -2156 2157 0
-2157 2167 0
-201 -2157 2158 0
-2158 2168 0
-202 -2158 2159 0
-2159 2169 0
-203 -2159 2160 0
-2160 2170 0
-204 -2160 0
-195 2161 0
-2161 2171 0
-196 -2161 2162 0
-2162 2172 0
-197 -2162 2163 0
-2163 2173 0
-198 -2163 2164 0
-2164 2174 0
-199 -2164 2165 0
-2165 2175 0
-200 -2165 2166 0
-2166 2176 0
-201 -2166 2167 0
-2167 2177 0
-202 -2167 2168 0
-2168 2178 0
-203 -2168 2169 0
-2169 2179 0
-204 -2169 2170 0
-2170 2180 0
-205 -2170 0
-196 2171 0
-2171 2181 0
-197 -2171 2172 0
-2172 2182 0
-198 -2172 2173 0
-2173 2183 0
-199 -2173 2174 0
-2174 2184 0
-200 -2174 2175 0
-2175 2185 0
-201 -2175 2176 0
-2176 2186 0
-202 -2176 2177 0
-2177 2187 0
-203 -2177 2178 0
-2178 2188 0
-204 -2178 2179 0
-2179 2189 0
-205 -2179 2180 0
-2180 2190 0
-206 -2180 0
-197 2181 0
-2181 2191 0
-198 -2181 2182 0
-2182 2192 0
-199 -2182 2183 0
-2183 2193 0
-200 -2183 2184 0
-2184 2194 0
-201 -2184 2185 0
-2185 2195 0
-202 -2185 2186 0
-2186 2196 0
-203 -2186 2187 0
-2187 2197 0
-204 -2187 2188 0
-2188 2198 0
-205 -2188 2189 0
-2189 2199 0
-206 -2189 2190 0
-2190 2200 0
-207 -2190 0
-198 2191 0
-2191 2201 0
-199 -2191 2192 0
-2192 2202 0
-200 -2192 2193 0
-2193 2203 0
-201 -2193 2194 0
-2194 2204 0
-202 -2194 2195 0
-2195 2205 0
-203 -2195 2196 0
-2196 2206 0
-204 -2196 2197 0
-2197 2207 0
-205 -2197 2198 0
-2198 2208 0
-206 -2198 2199 0
-2199 2209 0
-207 -2199 2200 0
-2200 2210 0
-208 -2200 0
-199 2201 0
-2201 2211 0
-200 -2201 2202 0
-2202 2212 0
-201 -2202 2203 0
-2203 2213 0
-202 -2203 2204 0
-2204 2214 0
-203 -2204 2205 0
-2205 2215 0
-204 -2205 2206 0
-2206 2216 0
-205 -2206 2207 0
-2207 2217 0
-206 -2207 2208 0
-2208 2218 0
-207 -2208 2209 0
-2209 2219 0
-208 -2209 2210 0
-2210 2220 0
-209 -2210 0
-200 2211 0
-2211 2221 0
-201 -2211 2212 0
-2212 2222 0
-202 -2212 2213 0
-2213 2223 0
-203 -2213 2214 0
-2214 2224 0
-204 -2214 2215 0
-2215 2225 0
-205 -2215 2216 0
-2216 2226 0
-206 -2216 2217 0
-2217 2227 0
-207 -2217 2218 0
-2218 2228 0
-208 -2218 2219 0
-2219 2229 0
-209 -2219 2220 0
-2220 2230 0
-210 -2220 0
-201 2221 0
-2221 2231 0
-202 -2221 2222 0
-2222 2232 0
-203 -2222 2223 0
-2223 2233 0
-204 -2223 2224 0
-2224 2234 0
-205 -2224 2225 0
-2225 2235 0
-206 -2225 2226 0
-2226 2236 0
-207 -2226 2227 0
-2227 2237 0
-208 -2227 2228 0
-2228 2238 0
-209 -2228 2229 0
-2229 2239 0
-210 -2229 2230 0
-2230 2240 0
-211 -2230 0
-202 2231 0
-2231 2241 0
-203 -2231 2232 0
-2232 2242 0
-204 -2232 2233 0
-2233 2243 0
-205 -2233 2234 0
-2234 2244 0
-206 -2234 2235 0
-2235 2245 0
-207 -2235 2236 0
-2236 2246 0
-208 -2236 2237 0
-2237 2247 0
-209 -2237 2238 0
-2238 2248 0
-210 -2238 2239 0
-2239 2249 0
-211 -2239 2240 0
-2240 2250 0
-212 -2240 0
-203 2241 0
-2241 2251 0
-204 -2241 2242 0
-2242 2252 0
-205 -2242 2243 0
-2243 2253 0
-206 -2243 2244 0
-2244 2254 0
-207 -2244 2245 0
-2245 2255 0
-208 -2245 2246 0
-2246 2256 0
-209 -2246 2247 0
-2247 2257 0
-210 -2247 2248 0
-2248 2258 0
-211 -2248 2249 0
-2249 2259 0
-212 -2249 2250 0
-2250 2260 0
-213 -2250 0
-204 2251 0
-2251 2261 0
-205 -2251 2252 0
-2252 2262 0
-206 -2252 2253 0
-2253 2263 0
-207 -2253 2254 0
-2254 2264 0
-208 -2254 2255 0
-2255 2265 0
-209 -2255 2256 0
-2256 2266 0
-210 -2256 2257 0
-2257 2267 0
-211 -2257 2258 0
-2258 2268 0
-212 -2258 2259 0
-2259 2269 0
-213 -2259 2260 0
-2260 2270 0
-214 -2260 0
-205 2261 0
-2261 2271 0
-206 -2261 2262 0
-2262 2272 0
-207 -2262 2263 0
-2263 2273 0
-208 -2263 2264 0
-2264 2274 0
-209 -2264 2265 0
-2265 2275 0
-210 -2265 2266 0
-2266 2276 0
-211 -2266 2267 0
-2267 2277 0
-212 -2267 2268 0
-2268 2278 0
-213 -2268 2269 0
-2269 2279 0
-214 -2269 2270 0
-2270 2280 0
-215 -2270 0
-206 2271 0
-2271 2281 0
-207 -2271 2272 0
-2272 2282 0
-208 -2272 2273 0
-2273 2283 0
-209 -2273 2274 0
-2274 2284 0
-210 -2274 2275 0
-2275 2285 0
-211 -2275 2276 0
-2276 2286 0
-212 -2276 2277 0
-2277 2287 0
-213 -2277 2278 0
-2278 2288 0
-214 -2278 2279 0
-2279 2289 0
-215 -2279 2280 0
-2280 2290 0
-216 -2280 0
-207 2281 0
-2281 2291 0
-208 -2281 2282 0
-2282 2292 0
-209 -2282 2283 0
-2283 2293 0
-210 -2283 2284 0
-2284 2294 0
-211 -2284 2285 0
-2285 2295 0
-212 -2285 2286 0
-2286 2296 0
-213 -2286 2287 0
-2287 2297 0
-214 -2287 2288 0
-2288 2298 0
-215 -2288 2289 0
-2289 2299 0
-216 -2289 2290 0
-2290 2300 0
-217 -2290 0
-208 2291 0
-2291 2301 0
-209 -2291 2292 0
-2292 2302 0
-210 -2292 2293 0
-2293 2303 0
-211 -2293 2294 0
-2294 2304 0
-212 -2294 2295 0
-2295 2305 0
-213 -2295 2296 0
-2296 2306 0
-214 -2296 2297 0
-2297 2307 0
-215 -2297 2298 0
-2298 2308 0
-216 -2298 2299 0
-2299 2309 0
-217 -2299 2300 0
-2300 2310 0
-218 -2300 0
-209 2301 0
-2301 2311 0
-210 -2301 2302 0
-2302 2312 0
-211 -2302 2303 0
-2303 2313 0
-212 -2303 2304 0
-2304 2314 0
-213 -2304 2305 0
-2305 2315 0
-214 -2305 2306 0
-2306 2316 0
-215 -2306 2307 0
-2307 2317 0
-216 -2307 2308 0
-2308 2318 0
-217 -2308 2309 0
-2309 2319 0
-218 -2309 2310 0
-2310 2320 0
-219 -2310 0
-210 2311 0
-211 -2311 2312 0
-212 -2312 2313 0
-213 -2313 2314 0
-214 -2314 2315 0
-215 -2315 2316 0
-216 -2316 2317 0
-217 -2317 2318 0
-218 -2318 2319 0
-219 -2319 2320 0
-220 -2320 0
